
Version,
  23.1;                                   !- Version Identifier

Timestep,
  6;                                      !- Number of Timesteps per Hour

LifeCycleCost:Parameters,
  Life Cycle Cost Parameters,             !- Name
  EndOfYear,                              !- Discounting Convention
  ConstantDollar,                         !- Inflation Approach
  0.03,                                   !- Real Discount Rate
  ,                                       !- Nominal Discount Rate
  ,                                       !- Inflation
  ,                                       !- Base Date Month
  2011,                                   !- Base Date Year
  ,                                       !- Service Date Month
  2011,                                   !- Service Date Year
  25,                                     !- Length of Study Period in Years
  ,                                       !- Tax rate
  None;                                   !- Depreciation Method

LifeCycleCost:UsePriceEscalation,
  U.S. Avg  Commercial-Electricity,       !- Name
  Electricity,                            !- Resource
  2011,                                   !- Escalation Start Year
  January,                                !- Escalation Start Month
  0.9838,                                 !- Year Escalation 1
  0.9730,                                 !- Year Escalation 2
  0.9632,                                 !- Year Escalation 3
  0.9611,                                 !- Year Escalation 4
  0.9571,                                 !- Year Escalation 5
  0.9553,                                 !- Year Escalation 6
  0.9539,                                 !- Year Escalation 7
  0.9521,                                 !- Year Escalation 8
  0.9546,                                 !- Year Escalation 9
  0.9550,                                 !- Year Escalation 10
  0.9553,                                 !- Year Escalation 11
  0.9564,                                 !- Year Escalation 12
  0.9575,                                 !- Year Escalation 13
  0.9596,                                 !- Year Escalation 14
  0.9618,                                 !- Year Escalation 15
  0.9614,                                 !- Year Escalation 16
  0.9618,                                 !- Year Escalation 17
  0.9618,                                 !- Year Escalation 18
  0.9593,                                 !- Year Escalation 19
  0.9589,                                 !- Year Escalation 20
  0.9607,                                 !- Year Escalation 21
  0.9625,                                 !- Year Escalation 22
  0.9650,                                 !- Year Escalation 23
  0.9708,                                 !- Year Escalation 24
  0.9751,                                 !- Year Escalation 25
  0.9762,                                 !- Year Escalation 26
  0.9766,                                 !- Year Escalation 27
  0.9766,                                 !- Year Escalation 28
  0.9769,                                 !- Year Escalation 29
  0.9773;                                 !- Year Escalation 30

LifeCycleCost:UsePriceEscalation,
  U.S. Avg  Commercial-Distillate Oil,    !- Name
  FuelOilNo1,                             !- Resource
  2011,                                   !- Escalation Start Year
  January,                                !- Escalation Start Month
  0.9714,                                 !- Year Escalation 1
  0.9730,                                 !- Year Escalation 2
  0.9942,                                 !- Year Escalation 3
  1.0164,                                 !- Year Escalation 4
  1.0541,                                 !- Year Escalation 5
  1.0928,                                 !- Year Escalation 6
  1.1267,                                 !- Year Escalation 7
  1.1580,                                 !- Year Escalation 8
  1.1792,                                 !- Year Escalation 9
  1.1967,                                 !- Year Escalation 10
  1.2200,                                 !- Year Escalation 11
  1.2333,                                 !- Year Escalation 12
  1.2566,                                 !- Year Escalation 13
  1.2709,                                 !- Year Escalation 14
  1.2826,                                 !- Year Escalation 15
  1.2985,                                 !- Year Escalation 16
  1.3102,                                 !- Year Escalation 17
  1.3250,                                 !- Year Escalation 18
  1.3261,                                 !- Year Escalation 19
  1.3282,                                 !- Year Escalation 20
  1.3324,                                 !- Year Escalation 21
  1.3356,                                 !- Year Escalation 22
  1.3431,                                 !- Year Escalation 23
  1.3510,                                 !- Year Escalation 24
  1.3568,                                 !- Year Escalation 25
  1.3606,                                 !- Year Escalation 26
  1.3637,                                 !- Year Escalation 27
  1.3674,                                 !- Year Escalation 28
  1.3706,                                 !- Year Escalation 29
  1.3743;                                 !- Year Escalation 30

LifeCycleCost:UsePriceEscalation,
  U.S. Avg  Commercial-Residual Oil,      !- Name
  FuelOilNo2,                             !- Resource
  2011,                                   !- Escalation Start Year
  January,                                !- Escalation Start Month
  0.8469,                                 !- Year Escalation 1
  0.8257,                                 !- Year Escalation 2
  0.8681,                                 !- Year Escalation 3
  0.8988,                                 !- Year Escalation 4
  0.9289,                                 !- Year Escalation 5
  0.9604,                                 !- Year Escalation 6
  0.9897,                                 !- Year Escalation 7
  1.0075,                                 !- Year Escalation 8
  1.0314,                                 !- Year Escalation 9
  1.0554,                                 !- Year Escalation 10
  1.0861,                                 !- Year Escalation 11
  1.1278,                                 !- Year Escalation 12
  1.1497,                                 !- Year Escalation 13
  1.1620,                                 !- Year Escalation 14
  1.1743,                                 !- Year Escalation 15
  1.1852,                                 !- Year Escalation 16
  1.1948,                                 !- Year Escalation 17
  1.2037,                                 !- Year Escalation 18
  1.2071,                                 !- Year Escalation 19
  1.2119,                                 !- Year Escalation 20
  1.2139,                                 !- Year Escalation 21
  1.2194,                                 !- Year Escalation 22
  1.2276,                                 !- Year Escalation 23
  1.2365,                                 !- Year Escalation 24
  1.2420,                                 !- Year Escalation 25
  1.2461,                                 !- Year Escalation 26
  1.2509,                                 !- Year Escalation 27
  1.2550,                                 !- Year Escalation 28
  1.2591,                                 !- Year Escalation 29
  1.2638;                                 !- Year Escalation 30

LifeCycleCost:UsePriceEscalation,
  U.S. Avg  Commercial-Natural gas,       !- Name
  NaturalGas,                             !- Resource
  2011,                                   !- Escalation Start Year
  January,                                !- Escalation Start Month
  0.9823,                                 !- Year Escalation 1
  0.9557,                                 !- Year Escalation 2
  0.9279,                                 !- Year Escalation 3
  0.9257,                                 !- Year Escalation 4
  0.9346,                                 !- Year Escalation 5
  0.9412,                                 !- Year Escalation 6
  0.9512,                                 !- Year Escalation 7
  0.9645,                                 !- Year Escalation 8
  0.9856,                                 !- Year Escalation 9
  1.0067,                                 !- Year Escalation 10
  1.0222,                                 !- Year Escalation 11
  1.0410,                                 !- Year Escalation 12
  1.0610,                                 !- Year Escalation 13
  1.0787,                                 !- Year Escalation 14
  1.0942,                                 !- Year Escalation 15
  1.1098,                                 !- Year Escalation 16
  1.1220,                                 !- Year Escalation 17
  1.1308,                                 !- Year Escalation 18
  1.1386,                                 !- Year Escalation 19
  1.1486,                                 !- Year Escalation 20
  1.1619,                                 !- Year Escalation 21
  1.1763,                                 !- Year Escalation 22
  1.1918,                                 !- Year Escalation 23
  1.2118,                                 !- Year Escalation 24
  1.2284,                                 !- Year Escalation 25
  1.2439,                                 !- Year Escalation 26
  1.2605,                                 !- Year Escalation 27
  1.2772,                                 !- Year Escalation 28
  1.2938,                                 !- Year Escalation 29
  1.3115;                                 !- Year Escalation 30

LifeCycleCost:UsePriceEscalation,
  U.S. Avg  Commercial-Coal,              !- Name
  Coal,                                   !- Resource
  2011,                                   !- Escalation Start Year
  January,                                !- Escalation Start Month
  0.9970,                                 !- Year Escalation 1
  1.0089,                                 !- Year Escalation 2
  1.0089,                                 !- Year Escalation 3
  0.9941,                                 !- Year Escalation 4
  0.9941,                                 !- Year Escalation 5
  1.0000,                                 !- Year Escalation 6
  1.0030,                                 !- Year Escalation 7
  1.0059,                                 !- Year Escalation 8
  1.0089,                                 !- Year Escalation 9
  1.0119,                                 !- Year Escalation 10
  1.0148,                                 !- Year Escalation 11
  1.0178,                                 !- Year Escalation 12
  1.0208,                                 !- Year Escalation 13
  1.0267,                                 !- Year Escalation 14
  1.0297,                                 !- Year Escalation 15
  1.0356,                                 !- Year Escalation 16
  1.0415,                                 !- Year Escalation 17
  1.0534,                                 !- Year Escalation 18
  1.0564,                                 !- Year Escalation 19
  1.0593,                                 !- Year Escalation 20
  1.0653,                                 !- Year Escalation 21
  1.0712,                                 !- Year Escalation 22
  1.0742,                                 !- Year Escalation 23
  1.0801,                                 !- Year Escalation 24
  1.0831,                                 !- Year Escalation 25
  1.0831,                                 !- Year Escalation 26
  1.0861,                                 !- Year Escalation 27
  1.0890,                                 !- Year Escalation 28
  1.0920,                                 !- Year Escalation 29
  1.0950;                                 !- Year Escalation 30

Building,
  unnamed,                                !- Name
  0,                                      !- North Axis {deg}
  City,                                   !- Terrain
  ,                                       !- Loads Convergence Tolerance Value {W}
  ,                                       !- Temperature Convergence Tolerance Value {deltaC}
  FullExteriorWithReflections,            !- Solar Distribution
  ,                                       !- Maximum Number of Warmup Days
  ;                                       !- Minimum Number of Warmup Days

Zone,
  Room_1409_470e73cc,                     !- Name
  ,                                       !- Direction of Relative North {deg}
  0,                                      !- X Origin {m}
  0,                                      !- Y Origin {m}
  0,                                      !- Z Origin {m}
  ,                                       !- Type
  1,                                      !- Multiplier
  4.5,                                    !- Ceiling Height {m}
  5129.8272,                              !- Volume {m3}
  ,                                       !- Floor Area {m2}
  ,                                       !- Zone Inside Convection Algorithm
  ,                                       !- Zone Outside Convection Algorithm
  Yes;                                    !- Part of Total Floor Area

Space,
  Room_1409_470e73cc_Space,               !- Name
  Room_1409_470e73cc,                     !- Zone Name
  ,                                       !- Ceiling Height {m}
  ,                                       !- Volume {m3}
  ,                                       !- Floor Area {m2}
  ProgramType_f9e2e425;                   !- Space Type

SpaceList,
  ProgramType_f9e2e425,                   !- Name
  Room_1409_470e73cc_Space,               !- Space Name 1
  Room_1410_d508b878_Space,               !- Space Name 2
  Room_1411_b0c8040d_Space,               !- Space Name 3
  Room_1413_b054cecc_Space,               !- Space Name 4
  Room_1414_dce579f1_Space,               !- Space Name 5
  Room_1412_6e864ed8_Space,               !- Space Name 6
  Room_1425_fad10760_Space,               !- Space Name 7
  Room_1415_de86df45_Space,               !- Space Name 8
  Room_1416_dea82892_Space,               !- Space Name 9
  Room_1417_dd7012e5_Space,               !- Space Name 10
  Room_1418_b43ea9f0_Space,               !- Space Name 11
  Room_1419_3cec4092_Space,               !- Space Name 12
  Room_1420_b9536d43_Space,               !- Space Name 13
  Room_1421_e7757f88_Space,               !- Space Name 14
  Room_1422_86173f66_Space,               !- Space Name 15
  Room_1423_007f3b82_Space,               !- Space Name 16
  Room_1424_be2a7315_Space;               !- Space Name 17

Lights,
  Lighting_2247bf0e,                      !- Name
  ProgramType_f9e2e425,                   !- Zone or ZoneList or Space or SpaceList Name
  WeeklySchedule_2856ceac,                !- Schedule Name
  Watts/Area,                             !- Design Level Calculation Method
  ,                                       !- Lighting Level {W}
  9,                                      !- Watts per Zone Floor Area {W/m2}
  ,                                       !- Watts per Person {W/person}
  0,                                      !- Return Air Fraction
  0.32,                                   !- Fraction Radiant
  0.25,                                   !- Fraction Visible
  1,                                      !- Fraction Replaceable
  General;                                !- End-Use Subcategory

ScheduleTypeLimits,
  On-Off,                                 !- Name
  0,                                      !- Lower Limit Value {BasedOnField A3}
  1,                                      !- Upper Limit Value {BasedOnField A3}
  Discrete,                               !- Numeric Type
  dimensionless;                          !- Unit Type

Schedule:Day:Interval,
  WeeklySchedule_2856ceac_Sunday,         !- Name
  On-Off,                                 !- Schedule Type Limits Name
  No,                                     !- Interpolate to Timestep
  24:00,                                  !- Time 1 {hh:mm}
  0;                                      !- Value Until Time 1

Schedule:Day:Interval,
  Schedule Day 1,                         !- Name
  On-Off,                                 !- Schedule Type Limits Name
  No,                                     !- Interpolate to Timestep
  09:00,                                  !- Time 1 {hh:mm}
  0,                                      !- Value Until Time 1
  18:00,                                  !- Time 2 {hh:mm}
  1,                                      !- Value Until Time 2
  24:00,                                  !- Time 3 {hh:mm}
  0;                                      !- Value Until Time 3

Schedule:Week:Daily,
  WeeklySchedule_2856ceac Week Rule - Jan1-Dec31, !- Name
  WeeklySchedule_2856ceac_Sunday,         !- Sunday Schedule:Day Name
  Schedule Day 1,                         !- Monday Schedule:Day Name
  Schedule Day 1,                         !- Tuesday Schedule:Day Name
  Schedule Day 1,                         !- Wednesday Schedule:Day Name
  Schedule Day 1,                         !- Thursday Schedule:Day Name
  Schedule Day 1,                         !- Friday Schedule:Day Name
  WeeklySchedule_2856ceac_Sunday,         !- Saturday Schedule:Day Name
  WeeklySchedule_2856ceac_Hol 1,          !- Holiday Schedule:Day Name
  WeeklySchedule_2856ceac_Monday_SmrDsn 1, !- SummerDesignDay Schedule:Day Name
  WeeklySchedule_2856ceac_Monday_SmrDsn_WntrDsn 1, !- WinterDesignDay Schedule:Day Name
  WeeklySchedule_2856ceac_Sunday,         !- CustomDay1 Schedule:Day Name
  WeeklySchedule_2856ceac_Sunday;         !- CustomDay2 Schedule:Day Name

Schedule:Year,
  WeeklySchedule_2856ceac,                !- Name
  On-Off,                                 !- Schedule Type Limits Name
  WeeklySchedule_2856ceac Week Rule - Jan1-Dec31, !- Schedule:Week Name 1
  1,                                      !- Start Month 1
  1,                                      !- Start Day 1
  12,                                     !- End Month 1
  31;                                     !- End Day 1

Schedule:Day:Interval,
  WeeklySchedule_2856ceac_Monday_SmrDsn 1, !- Name
  On-Off,                                 !- Schedule Type Limits Name
  No,                                     !- Interpolate to Timestep
  09:00,                                  !- Time 1 {hh:mm}
  0,                                      !- Value Until Time 1
  18:00,                                  !- Time 2 {hh:mm}
  1,                                      !- Value Until Time 2
  24:00,                                  !- Time 3 {hh:mm}
  0;                                      !- Value Until Time 3

Schedule:Day:Interval,
  WeeklySchedule_2856ceac_Monday_SmrDsn_WntrDsn 1, !- Name
  On-Off,                                 !- Schedule Type Limits Name
  No,                                     !- Interpolate to Timestep
  24:00,                                  !- Time 1 {hh:mm}
  0;                                      !- Value Until Time 1

Schedule:Day:Interval,
  WeeklySchedule_2856ceac_Hol 1,          !- Name
  On-Off,                                 !- Schedule Type Limits Name
  No,                                     !- Interpolate to Timestep
  24:00,                                  !- Time 1 {hh:mm}
  0;                                      !- Value Until Time 1

People,
  People_35de918c,                        !- Name
  ProgramType_f9e2e425,                   !- Zone or ZoneList or Space or SpaceList Name
  WeeklySchedule_c66fc778,                !- Number of People Schedule Name
  People/Area,                            !- Number of People Calculation Method
  ,                                       !- Number of People
  0.111,                                  !- People per Floor Area {person/m2}
  ,                                       !- Floor Area per Person {m2/person}
  0.3,                                    !- Fraction Radiant
  ,                                       !- Sensible Heat Fraction
  Seated Adult Activity;                  !- Activity Level Schedule Name

ScheduleTypeLimits,
  Fractional,                             !- Name
  0,                                      !- Lower Limit Value {BasedOnField A3}
  1,                                      !- Upper Limit Value {BasedOnField A3}
  Continuous,                             !- Numeric Type
  dimensionless;                          !- Unit Type

Schedule:Day:Interval,
  WeeklySchedule_c66fc778_Sunday,         !- Name
  Fractional,                             !- Schedule Type Limits Name
  No,                                     !- Interpolate to Timestep
  24:00,                                  !- Time 1 {hh:mm}
  0;                                      !- Value Until Time 1

Schedule:Day:Interval,
  Schedule Day 4,                         !- Name
  Fractional,                             !- Schedule Type Limits Name
  No,                                     !- Interpolate to Timestep
  09:00,                                  !- Time 1 {hh:mm}
  0,                                      !- Value Until Time 1
  18:00,                                  !- Time 2 {hh:mm}
  1,                                      !- Value Until Time 2
  24:00,                                  !- Time 3 {hh:mm}
  0;                                      !- Value Until Time 3

Schedule:Week:Daily,
  WeeklySchedule_c66fc778 Week Rule - Jan1-Dec31, !- Name
  WeeklySchedule_c66fc778_Sunday,         !- Sunday Schedule:Day Name
  Schedule Day 4,                         !- Monday Schedule:Day Name
  Schedule Day 4,                         !- Tuesday Schedule:Day Name
  Schedule Day 4,                         !- Wednesday Schedule:Day Name
  Schedule Day 4,                         !- Thursday Schedule:Day Name
  Schedule Day 4,                         !- Friday Schedule:Day Name
  WeeklySchedule_c66fc778_Sunday,         !- Saturday Schedule:Day Name
  WeeklySchedule_c66fc778_Hol 1,          !- Holiday Schedule:Day Name
  WeeklySchedule_c66fc778_Monday_SmrDsn 1, !- SummerDesignDay Schedule:Day Name
  WeeklySchedule_c66fc778_Monday_SmrDsn_WntrDsn 1, !- WinterDesignDay Schedule:Day Name
  WeeklySchedule_c66fc778_Sunday,         !- CustomDay1 Schedule:Day Name
  WeeklySchedule_c66fc778_Sunday;         !- CustomDay2 Schedule:Day Name

Schedule:Year,
  WeeklySchedule_c66fc778,                !- Name
  Fractional,                             !- Schedule Type Limits Name
  WeeklySchedule_c66fc778 Week Rule - Jan1-Dec31, !- Schedule:Week Name 1
  1,                                      !- Start Month 1
  1,                                      !- Start Day 1
  12,                                     !- End Month 1
  31;                                     !- End Day 1

Schedule:Day:Interval,
  WeeklySchedule_c66fc778_Monday_SmrDsn 1, !- Name
  Fractional,                             !- Schedule Type Limits Name
  No,                                     !- Interpolate to Timestep
  09:00,                                  !- Time 1 {hh:mm}
  0,                                      !- Value Until Time 1
  18:00,                                  !- Time 2 {hh:mm}
  1,                                      !- Value Until Time 2
  24:00,                                  !- Time 3 {hh:mm}
  0;                                      !- Value Until Time 3

Schedule:Day:Interval,
  WeeklySchedule_c66fc778_Monday_SmrDsn_WntrDsn 1, !- Name
  Fractional,                             !- Schedule Type Limits Name
  No,                                     !- Interpolate to Timestep
  24:00,                                  !- Time 1 {hh:mm}
  0;                                      !- Value Until Time 1

Schedule:Day:Interval,
  WeeklySchedule_c66fc778_Hol 1,          !- Name
  Fractional,                             !- Schedule Type Limits Name
  No,                                     !- Interpolate to Timestep
  24:00,                                  !- Time 1 {hh:mm}
  0;                                      !- Value Until Time 1

ScheduleTypeLimits,
  Activity Level,                         !- Name
  0,                                      !- Lower Limit Value {BasedOnField A3}
  ,                                       !- Upper Limit Value {BasedOnField A3}
  Continuous,                             !- Numeric Type
  activitylevel;                          !- Unit Type

Schedule:Day:Interval,
  Seated Adult Activity_Day Schedule,     !- Name
  Activity Level,                         !- Schedule Type Limits Name
  No,                                     !- Interpolate to Timestep
  24:00,                                  !- Time 1 {hh:mm}
  120;                                    !- Value Until Time 1

Schedule:Week:Daily,
  Seated Adult Activity Week Rule - Jan1-Dec31, !- Name
  Seated Adult Activity_Day Schedule,     !- Sunday Schedule:Day Name
  Seated Adult Activity_Day Schedule,     !- Monday Schedule:Day Name
  Seated Adult Activity_Day Schedule,     !- Tuesday Schedule:Day Name
  Seated Adult Activity_Day Schedule,     !- Wednesday Schedule:Day Name
  Seated Adult Activity_Day Schedule,     !- Thursday Schedule:Day Name
  Seated Adult Activity_Day Schedule,     !- Friday Schedule:Day Name
  Seated Adult Activity_Day Schedule,     !- Saturday Schedule:Day Name
  Seated Adult Activity_Day Schedule,     !- Holiday Schedule:Day Name
  Seated Adult Activity_Day Schedule,     !- SummerDesignDay Schedule:Day Name
  Seated Adult Activity_Day Schedule,     !- WinterDesignDay Schedule:Day Name
  Seated Adult Activity_Day Schedule,     !- CustomDay1 Schedule:Day Name
  Seated Adult Activity_Day Schedule;     !- CustomDay2 Schedule:Day Name

Schedule:Year,
  Seated Adult Activity,                  !- Name
  Activity Level,                         !- Schedule Type Limits Name
  Seated Adult Activity Week Rule - Jan1-Dec31, !- Schedule:Week Name 1
  1,                                      !- Start Month 1
  1,                                      !- Start Day 1
  12,                                     !- End Month 1
  31;                                     !- End Day 1

ElectricEquipment,
  Equipment_73333d6f,                     !- Name
  ProgramType_f9e2e425,                   !- Zone or ZoneList or Space or SpaceList Name
  WeeklySchedule_2856ceac,                !- Schedule Name
  Watts/Area,                             !- Design Level Calculation Method
  ,                                       !- Design Level {W}
  11.67,                                  !- Watts per Zone Floor Area {W/m2}
  ,                                       !- Watts per Person {W/person}
  0,                                      !- Fraction Latent
  0,                                      !- Fraction Radiant
  0,                                      !- Fraction Lost
  Electric Equipment;                     !- End-Use Subcategory

ZoneInfiltration:DesignFlowRate,
  2019::LargeOffice::ClosedOffice_Infiltration, !- Name
  ProgramType_f9e2e425,                   !- Zone or ZoneList or Space or SpaceList Name
  OfficeLarge INFIL_SCH_PNNL,             !- Schedule Name
  Flow/ExteriorArea,                      !- Design Flow Rate Calculation Method
  ,                                       !- Design Flow Rate {m3/s}
  ,                                       !- Flow Rate per Floor Area {m3/s-m2}
  0.000226568,                            !- Flow Rate per Exterior Surface Area {m3/s-m2}
  ,                                       !- Air Changes per Hour {1/hr}
  1,                                      !- Constant Term Coefficient
  0,                                      !- Temperature Term Coefficient
  0,                                      !- Velocity Term Coefficient
  ;                                       !- Velocity Squared Term Coefficient

BuildingSurface:Detailed,
  Room_1409_470e73cc..Face0,              !- Name
  Floor,                                  !- Surface Type
  OpaqueConstruction_47cf3687,            !- Construction Name
  Room_1409_470e73cc,                     !- Zone Name
  Room_1409_470e73cc_Space,               !- Space Name
  Ground,                                 !- Outside Boundary Condition
  ,                                       !- Outside Boundary Condition Object
  NoSun,                                  !- Sun Exposure
  NoWind,                                 !- Wind Exposure
  ,                                       !- View Factor to Ground
  ,                                       !- Number of Vertices
  52.776, 64.8, 0,                        !- X,Y,Z Vertex 1 {m}
  52.776, 43.2, 0,                        !- X,Y,Z Vertex 2 {m}
  3.88578058618805e-15, 43.2, 0,          !- X,Y,Z Vertex 3 {m}
  8.32667268468867e-16, 64.8, 0;          !- X,Y,Z Vertex 4 {m}

BuildingSurface:Detailed,
  Room_1409_470e73cc..Face1,              !- Name
  Ceiling,                                !- Surface Type
  OpaqueConstruction_47cf3687,            !- Construction Name
  Room_1409_470e73cc,                     !- Zone Name
  Room_1409_470e73cc_Space,               !- Space Name
  Surface,                                !- Outside Boundary Condition
  Room_1411_b0c8040d..Face0,              !- Outside Boundary Condition Object
  NoSun,                                  !- Sun Exposure
  NoWind,                                 !- Wind Exposure
  ,                                       !- View Factor to Ground
  ,                                       !- Number of Vertices
  8.32667268468867e-16, 64.8, 4.5,        !- X,Y,Z Vertex 1 {m}
  1.86887542478568e-15, 43.2, 4.5,        !- X,Y,Z Vertex 2 {m}
  52.776, 43.2, 4.5,                      !- X,Y,Z Vertex 3 {m}
  52.776, 64.8, 4.5;                      !- X,Y,Z Vertex 4 {m}

BuildingSurface:Detailed,
  Room_1409_470e73cc..Face2,              !- Name
  Wall,                                   !- Surface Type
  OpaqueConstruction_47cf3687,            !- Construction Name
  Room_1409_470e73cc,                     !- Zone Name
  Room_1409_470e73cc_Space,               !- Space Name
  Outdoors,                               !- Outside Boundary Condition
  ,                                       !- Outside Boundary Condition Object
  SunExposed,                             !- Sun Exposure
  WindExposed,                            !- Wind Exposure
  ,                                       !- View Factor to Ground
  ,                                       !- Number of Vertices
  36, 43.2, 4.5,                          !- X,Y,Z Vertex 1 {m}
  36, 43.2, 0,                            !- X,Y,Z Vertex 2 {m}
  52.776, 43.2, 0,                        !- X,Y,Z Vertex 3 {m}
  52.776, 43.2, 4.5;                      !- X,Y,Z Vertex 4 {m}

FenestrationSurface:Detailed,
  Aperture_3b32eb44,                      !- Name
  Window,                                 !- Surface Type
  WindowConstruction_1dfe9b5d,            !- Construction Name
  Room_1409_470e73cc..Face2,              !- Building Surface Name
  ,                                       !- Outside Boundary Condition Object
  ,                                       !- View Factor to Ground
  ,                                       !- Frame and Divider Name
  ,                                       !- Multiplier
  ,                                       !- Number of Vertices
  43.46, 43.2, 3.6,                       !- X,Y,Z Vertex 1 {m}
  43.46, 43.2, 0.1,                       !- X,Y,Z Vertex 2 {m}
  50.14, 43.2, 0.1,                       !- X,Y,Z Vertex 3 {m}
  50.14, 43.2, 3.6;                       !- X,Y,Z Vertex 4 {m}

FenestrationSurface:Detailed,
  Aperture_a7937575,                      !- Name
  Window,                                 !- Surface Type
  WindowConstruction_1dfe9b5d,            !- Construction Name
  Room_1409_470e73cc..Face2,              !- Building Surface Name
  ,                                       !- Outside Boundary Condition Object
  ,                                       !- View Factor to Ground
  ,                                       !- Frame and Divider Name
  ,                                       !- Multiplier
  ,                                       !- Number of Vertices
  36.26, 43.2, 3.6,                       !- X,Y,Z Vertex 1 {m}
  36.26, 43.2, 0.1,                       !- X,Y,Z Vertex 2 {m}
  42.94, 43.2, 0.1,                       !- X,Y,Z Vertex 3 {m}
  42.94, 43.2, 3.6;                       !- X,Y,Z Vertex 4 {m}

FenestrationSurface:Detailed,
  Aperture_ab659302,                      !- Name
  Window,                                 !- Surface Type
  WindowConstruction_1dfe9b5d,            !- Construction Name
  Room_1409_470e73cc..Face2,              !- Building Surface Name
  ,                                       !- Outside Boundary Condition Object
  ,                                       !- View Factor to Ground
  ,                                       !- Frame and Divider Name
  ,                                       !- Multiplier
  ,                                       !- Number of Vertices
  50.66, 43.2, 3.6,                       !- X,Y,Z Vertex 1 {m}
  50.66, 43.2, 0.1,                       !- X,Y,Z Vertex 2 {m}
  52.516, 43.2, 0.1,                      !- X,Y,Z Vertex 3 {m}
  52.516, 43.2, 3.6;                      !- X,Y,Z Vertex 4 {m}

BuildingSurface:Detailed,
  Room_1409_470e73cc..Face3,              !- Name
  Wall,                                   !- Surface Type
  OpaqueConstruction_47cf3687,            !- Construction Name
  Room_1409_470e73cc,                     !- Zone Name
  Room_1409_470e73cc_Space,               !- Space Name
  Outdoors,                               !- Outside Boundary Condition
  ,                                       !- Outside Boundary Condition Object
  SunExposed,                             !- Sun Exposure
  WindExposed,                            !- Wind Exposure
  ,                                       !- View Factor to Ground
  ,                                       !- Number of Vertices
  1.86887542478568e-15, 43.2, 4.5,        !- X,Y,Z Vertex 1 {m}
  3.88578058618805e-15, 43.2, 0,          !- X,Y,Z Vertex 2 {m}
  14.4, 43.2, 0,                          !- X,Y,Z Vertex 3 {m}
  14.4, 43.2, 4.5;                        !- X,Y,Z Vertex 4 {m}

FenestrationSurface:Detailed,
  Aperture_9faf1f04,                      !- Name
  Window,                                 !- Surface Type
  WindowConstruction_1dfe9b5d,            !- Construction Name
  Room_1409_470e73cc..Face3,              !- Building Surface Name
  ,                                       !- Outside Boundary Condition Object
  ,                                       !- View Factor to Ground
  ,                                       !- Frame and Divider Name
  ,                                       !- Multiplier
  ,                                       !- Number of Vertices
  0.260000000000006, 43.2, 3.6,           !- X,Y,Z Vertex 1 {m}
  0.260000000000006, 43.2, 0.1,           !- X,Y,Z Vertex 2 {m}
  6.94, 43.2, 0.1,                        !- X,Y,Z Vertex 3 {m}
  6.94, 43.2, 3.6;                        !- X,Y,Z Vertex 4 {m}

FenestrationSurface:Detailed,
  Aperture_de268943,                      !- Name
  Window,                                 !- Surface Type
  WindowConstruction_1dfe9b5d,            !- Construction Name
  Room_1409_470e73cc..Face3,              !- Building Surface Name
  ,                                       !- Outside Boundary Condition Object
  ,                                       !- View Factor to Ground
  ,                                       !- Frame and Divider Name
  ,                                       !- Multiplier
  ,                                       !- Number of Vertices
  7.46, 43.2, 3.6,                        !- X,Y,Z Vertex 1 {m}
  7.46, 43.2, 0.1,                        !- X,Y,Z Vertex 2 {m}
  14.14, 43.2, 0.1,                       !- X,Y,Z Vertex 3 {m}
  14.14, 43.2, 3.6;                       !- X,Y,Z Vertex 4 {m}

BuildingSurface:Detailed,
  Room_1409_470e73cc..Face4,              !- Name
  Wall,                                   !- Surface Type
  OpaqueConstruction_47cf3687,            !- Construction Name
  Room_1409_470e73cc,                     !- Zone Name
  Room_1409_470e73cc_Space,               !- Space Name
  Outdoors,                               !- Outside Boundary Condition
  ,                                       !- Outside Boundary Condition Object
  SunExposed,                             !- Sun Exposure
  WindExposed,                            !- Wind Exposure
  ,                                       !- View Factor to Ground
  ,                                       !- Number of Vertices
  52.776, 64.8, 4.5,                      !- X,Y,Z Vertex 1 {m}
  52.776, 64.8, 0,                        !- X,Y,Z Vertex 2 {m}
  8.32667268468867e-16, 64.8, 0,          !- X,Y,Z Vertex 3 {m}
  8.32667268468867e-16, 64.8, 4.5;        !- X,Y,Z Vertex 4 {m}

FenestrationSurface:Detailed,
  Aperture_0388a41c,                      !- Name
  Window,                                 !- Surface Type
  WindowConstruction_1dfe9b5d,            !- Construction Name
  Room_1409_470e73cc..Face4,              !- Building Surface Name
  ,                                       !- Outside Boundary Condition Object
  ,                                       !- View Factor to Ground
  ,                                       !- Frame and Divider Name
  ,                                       !- Multiplier
  ,                                       !- Number of Vertices
  50.14, 64.8, 3.6,                       !- X,Y,Z Vertex 1 {m}
  50.14, 64.8, 0.1,                       !- X,Y,Z Vertex 2 {m}
  43.46, 64.8, 0.1,                       !- X,Y,Z Vertex 3 {m}
  43.46, 64.8, 3.6;                       !- X,Y,Z Vertex 4 {m}

FenestrationSurface:Detailed,
  Aperture_20560f77,                      !- Name
  Window,                                 !- Surface Type
  WindowConstruction_1dfe9b5d,            !- Construction Name
  Room_1409_470e73cc..Face4,              !- Building Surface Name
  ,                                       !- Outside Boundary Condition Object
  ,                                       !- View Factor to Ground
  ,                                       !- Frame and Divider Name
  ,                                       !- Multiplier
  ,                                       !- Number of Vertices
  52.516, 64.8, 3.6,                      !- X,Y,Z Vertex 1 {m}
  52.516, 64.8, 0.1,                      !- X,Y,Z Vertex 2 {m}
  50.66, 64.8, 0.1,                       !- X,Y,Z Vertex 3 {m}
  50.66, 64.8, 3.6;                       !- X,Y,Z Vertex 4 {m}

FenestrationSurface:Detailed,
  Aperture_36dd1c3c,                      !- Name
  Window,                                 !- Surface Type
  WindowConstruction_1dfe9b5d,            !- Construction Name
  Room_1409_470e73cc..Face4,              !- Building Surface Name
  ,                                       !- Outside Boundary Condition Object
  ,                                       !- View Factor to Ground
  ,                                       !- Frame and Divider Name
  ,                                       !- Multiplier
  ,                                       !- Number of Vertices
  35.74, 64.8, 3.6,                       !- X,Y,Z Vertex 1 {m}
  35.74, 64.8, 0.1,                       !- X,Y,Z Vertex 2 {m}
  29.06, 64.8, 0.1,                       !- X,Y,Z Vertex 3 {m}
  29.06, 64.8, 3.6;                       !- X,Y,Z Vertex 4 {m}

FenestrationSurface:Detailed,
  Aperture_6b68df64,                      !- Name
  Window,                                 !- Surface Type
  WindowConstruction_1dfe9b5d,            !- Construction Name
  Room_1409_470e73cc..Face4,              !- Building Surface Name
  ,                                       !- Outside Boundary Condition Object
  ,                                       !- View Factor to Ground
  ,                                       !- Frame and Divider Name
  ,                                       !- Multiplier
  ,                                       !- Number of Vertices
  14.14, 64.8, 3.6,                       !- X,Y,Z Vertex 1 {m}
  14.14, 64.8, 0.1,                       !- X,Y,Z Vertex 2 {m}
  7.46, 64.8, 0.1,                        !- X,Y,Z Vertex 3 {m}
  7.46, 64.8, 3.6;                        !- X,Y,Z Vertex 4 {m}

FenestrationSurface:Detailed,
  Aperture_708fc31e,                      !- Name
  Window,                                 !- Surface Type
  WindowConstruction_1dfe9b5d,            !- Construction Name
  Room_1409_470e73cc..Face4,              !- Building Surface Name
  ,                                       !- Outside Boundary Condition Object
  ,                                       !- View Factor to Ground
  ,                                       !- Frame and Divider Name
  ,                                       !- Multiplier
  ,                                       !- Number of Vertices
  28.54, 64.8, 3.6,                       !- X,Y,Z Vertex 1 {m}
  28.54, 64.8, 0.1,                       !- X,Y,Z Vertex 2 {m}
  21.86, 64.8, 0.1,                       !- X,Y,Z Vertex 3 {m}
  21.86, 64.8, 3.6;                       !- X,Y,Z Vertex 4 {m}

FenestrationSurface:Detailed,
  Aperture_77eb1123,                      !- Name
  Window,                                 !- Surface Type
  WindowConstruction_1dfe9b5d,            !- Construction Name
  Room_1409_470e73cc..Face4,              !- Building Surface Name
  ,                                       !- Outside Boundary Condition Object
  ,                                       !- View Factor to Ground
  ,                                       !- Frame and Divider Name
  ,                                       !- Multiplier
  ,                                       !- Number of Vertices
  21.34, 64.8, 3.6,                       !- X,Y,Z Vertex 1 {m}
  21.34, 64.8, 0.1,                       !- X,Y,Z Vertex 2 {m}
  14.66, 64.8, 0.1,                       !- X,Y,Z Vertex 3 {m}
  14.66, 64.8, 3.6;                       !- X,Y,Z Vertex 4 {m}

FenestrationSurface:Detailed,
  Aperture_bb95ffdf,                      !- Name
  Window,                                 !- Surface Type
  WindowConstruction_1dfe9b5d,            !- Construction Name
  Room_1409_470e73cc..Face4,              !- Building Surface Name
  ,                                       !- Outside Boundary Condition Object
  ,                                       !- View Factor to Ground
  ,                                       !- Frame and Divider Name
  ,                                       !- Multiplier
  ,                                       !- Number of Vertices
  6.94, 64.8, 3.6,                        !- X,Y,Z Vertex 1 {m}
  6.94, 64.8, 0.1,                        !- X,Y,Z Vertex 2 {m}
  0.259999999999999, 64.8, 0.1,           !- X,Y,Z Vertex 3 {m}
  0.259999999999999, 64.8, 3.6;           !- X,Y,Z Vertex 4 {m}

FenestrationSurface:Detailed,
  Aperture_cbc67021,                      !- Name
  Window,                                 !- Surface Type
  WindowConstruction_1dfe9b5d,            !- Construction Name
  Room_1409_470e73cc..Face4,              !- Building Surface Name
  ,                                       !- Outside Boundary Condition Object
  ,                                       !- View Factor to Ground
  ,                                       !- Frame and Divider Name
  ,                                       !- Multiplier
  ,                                       !- Number of Vertices
  42.94, 64.8, 3.6,                       !- X,Y,Z Vertex 1 {m}
  42.94, 64.8, 0.1,                       !- X,Y,Z Vertex 2 {m}
  36.26, 64.8, 0.1,                       !- X,Y,Z Vertex 3 {m}
  36.26, 64.8, 3.6;                       !- X,Y,Z Vertex 4 {m}

BuildingSurface:Detailed,
  Room_1409_470e73cc..Face5,              !- Name
  Wall,                                   !- Surface Type
  OpaqueConstruction_47cf3687,            !- Construction Name
  Room_1409_470e73cc,                     !- Zone Name
  Room_1409_470e73cc_Space,               !- Space Name
  Surface,                                !- Outside Boundary Condition
  Room_1416_dea82892..Face2,              !- Outside Boundary Condition Object
  NoSun,                                  !- Sun Exposure
  NoWind,                                 !- Wind Exposure
  ,                                       !- View Factor to Ground
  ,                                       !- Number of Vertices
  14.4, 43.2, 4.5,                        !- X,Y,Z Vertex 1 {m}
  14.4, 43.2, 0,                          !- X,Y,Z Vertex 2 {m}
  36, 43.2, 0,                            !- X,Y,Z Vertex 3 {m}
  36, 43.2, 4.5;                          !- X,Y,Z Vertex 4 {m}

FenestrationSurface:Detailed,
  Ajd_Aperture_6fe60b1e,                  !- Name
  Window,                                 !- Surface Type
  WindowConstruction_1dfe9b5d,            !- Construction Name
  Room_1409_470e73cc..Face5,              !- Building Surface Name
  Aperture_6fe60b1e,                      !- Outside Boundary Condition Object
  ,                                       !- View Factor to Ground
  ,                                       !- Frame and Divider Name
  ,                                       !- Multiplier
  ,                                       !- Number of Vertices
  28.9, 43.2, 2.3,                        !- X,Y,Z Vertex 1 {m}
  28.9, 43.2, 0.2,                        !- X,Y,Z Vertex 2 {m}
  29.8, 43.2, 0.2,                        !- X,Y,Z Vertex 3 {m}
  29.8, 43.2, 2.3;                        !- X,Y,Z Vertex 4 {m}

FenestrationSurface:Detailed,
  Ajd_Aperture_a2c12bc5,                  !- Name
  Window,                                 !- Surface Type
  WindowConstruction_1dfe9b5d,            !- Construction Name
  Room_1409_470e73cc..Face5,              !- Building Surface Name
  Aperture_a2c12bc5,                      !- Outside Boundary Condition Object
  ,                                       !- View Factor to Ground
  ,                                       !- Frame and Divider Name
  ,                                       !- Multiplier
  ,                                       !- Number of Vertices
  14.5, 43.2, 2.3,                        !- X,Y,Z Vertex 1 {m}
  14.5, 43.2, 0.2,                        !- X,Y,Z Vertex 2 {m}
  15.4, 43.2, 0.2,                        !- X,Y,Z Vertex 3 {m}
  15.4, 43.2, 2.3;                        !- X,Y,Z Vertex 4 {m}

FenestrationSurface:Detailed,
  Ajd_Aperture_a2c84a27,                  !- Name
  Window,                                 !- Surface Type
  WindowConstruction_1dfe9b5d,            !- Construction Name
  Room_1409_470e73cc..Face5,              !- Building Surface Name
  Aperture_a2c84a27,                      !- Outside Boundary Condition Object
  ,                                       !- View Factor to Ground
  ,                                       !- Frame and Divider Name
  ,                                       !- Multiplier
  ,                                       !- Number of Vertices
  21.7, 43.2, 2.3,                        !- X,Y,Z Vertex 1 {m}
  21.7, 43.2, 0.2,                        !- X,Y,Z Vertex 2 {m}
  22.6, 43.2, 0.2,                        !- X,Y,Z Vertex 3 {m}
  22.6, 43.2, 2.3;                        !- X,Y,Z Vertex 4 {m}

FenestrationSurface:Detailed,
  Ajd_Aperture_b4da073a,                  !- Name
  Window,                                 !- Surface Type
  WindowConstruction_1dfe9b5d,            !- Construction Name
  Room_1409_470e73cc..Face5,              !- Building Surface Name
  Aperture_b4da073a,                      !- Outside Boundary Condition Object
  ,                                       !- View Factor to Ground
  ,                                       !- Frame and Divider Name
  ,                                       !- Multiplier
  ,                                       !- Number of Vertices
  20.7, 43.2, 2.3,                        !- X,Y,Z Vertex 1 {m}
  20.7, 43.2, 0.2,                        !- X,Y,Z Vertex 2 {m}
  21.5, 43.2, 0.2,                        !- X,Y,Z Vertex 3 {m}
  21.5, 43.2, 2.3;                        !- X,Y,Z Vertex 4 {m}

FenestrationSurface:Detailed,
  Ajd_Aperture_e6eb20e5,                  !- Name
  Window,                                 !- Surface Type
  WindowConstruction_1dfe9b5d,            !- Construction Name
  Room_1409_470e73cc..Face5,              !- Building Surface Name
  Aperture_e6eb20e5,                      !- Outside Boundary Condition Object
  ,                                       !- View Factor to Ground
  ,                                       !- Frame and Divider Name
  ,                                       !- Multiplier
  ,                                       !- Number of Vertices
  35.1, 43.2, 2.3,                        !- X,Y,Z Vertex 1 {m}
  35.1, 43.2, 0.2,                        !- X,Y,Z Vertex 2 {m}
  35.9, 43.2, 0.2,                        !- X,Y,Z Vertex 3 {m}
  35.9, 43.2, 2.3;                        !- X,Y,Z Vertex 4 {m}

FenestrationSurface:Detailed,
  Ajd_Aperture_f13174d5,                  !- Name
  Window,                                 !- Surface Type
  WindowConstruction_1dfe9b5d,            !- Construction Name
  Room_1409_470e73cc..Face5,              !- Building Surface Name
  Aperture_f13174d5,                      !- Outside Boundary Condition Object
  ,                                       !- View Factor to Ground
  ,                                       !- Frame and Divider Name
  ,                                       !- Multiplier
  ,                                       !- Number of Vertices
  27.9, 43.2, 2.3,                        !- X,Y,Z Vertex 1 {m}
  27.9, 43.2, 0.2,                        !- X,Y,Z Vertex 2 {m}
  28.7, 43.2, 0.2,                        !- X,Y,Z Vertex 3 {m}
  28.7, 43.2, 2.3;                        !- X,Y,Z Vertex 4 {m}

BuildingSurface:Detailed,
  Room_1409_470e73cc..Face6,              !- Name
  Wall,                                   !- Surface Type
  OpaqueConstruction_47cf3687,            !- Construction Name
  Room_1409_470e73cc,                     !- Zone Name
  Room_1409_470e73cc_Space,               !- Space Name
  Outdoors,                               !- Outside Boundary Condition
  ,                                       !- Outside Boundary Condition Object
  SunExposed,                             !- Sun Exposure
  WindExposed,                            !- Wind Exposure
  ,                                       !- View Factor to Ground
  ,                                       !- Number of Vertices
  52.776, 43.2, 4.5,                      !- X,Y,Z Vertex 1 {m}
  52.776, 43.2, 0,                        !- X,Y,Z Vertex 2 {m}
  52.776, 64.8, 0,                        !- X,Y,Z Vertex 3 {m}
  52.776, 64.8, 4.5;                      !- X,Y,Z Vertex 4 {m}

FenestrationSurface:Detailed,
  Aperture_03765db6,                      !- Name
  Window,                                 !- Surface Type
  WindowConstruction_1dfe9b5d,            !- Construction Name
  Room_1409_470e73cc..Face6,              !- Building Surface Name
  ,                                       !- Outside Boundary Condition Object
  ,                                       !- View Factor to Ground
  ,                                       !- Frame and Divider Name
  ,                                       !- Multiplier
  ,                                       !- Number of Vertices
  52.776, 43.46, 3.6,                     !- X,Y,Z Vertex 1 {m}
  52.776, 43.46, 0.1,                     !- X,Y,Z Vertex 2 {m}
  52.776, 50.14, 0.1,                     !- X,Y,Z Vertex 3 {m}
  52.776, 50.14, 3.6;                     !- X,Y,Z Vertex 4 {m}

FenestrationSurface:Detailed,
  Aperture_72afe0cc,                      !- Name
  Window,                                 !- Surface Type
  WindowConstruction_1dfe9b5d,            !- Construction Name
  Room_1409_470e73cc..Face6,              !- Building Surface Name
  ,                                       !- Outside Boundary Condition Object
  ,                                       !- View Factor to Ground
  ,                                       !- Frame and Divider Name
  ,                                       !- Multiplier
  ,                                       !- Number of Vertices
  52.776, 57.86, 3.6,                     !- X,Y,Z Vertex 1 {m}
  52.776, 57.86, 0.1,                     !- X,Y,Z Vertex 2 {m}
  52.776, 64.54, 0.1,                     !- X,Y,Z Vertex 3 {m}
  52.776, 64.54, 3.6;                     !- X,Y,Z Vertex 4 {m}

FenestrationSurface:Detailed,
  Aperture_86fdfe8a,                      !- Name
  Window,                                 !- Surface Type
  WindowConstruction_1dfe9b5d,            !- Construction Name
  Room_1409_470e73cc..Face6,              !- Building Surface Name
  ,                                       !- Outside Boundary Condition Object
  ,                                       !- View Factor to Ground
  ,                                       !- Frame and Divider Name
  ,                                       !- Multiplier
  ,                                       !- Number of Vertices
  52.776, 50.66, 3.6,                     !- X,Y,Z Vertex 1 {m}
  52.776, 50.66, 0.1,                     !- X,Y,Z Vertex 2 {m}
  52.776, 57.34, 0.1,                     !- X,Y,Z Vertex 3 {m}
  52.776, 57.34, 3.6;                     !- X,Y,Z Vertex 4 {m}

BuildingSurface:Detailed,
  Room_1409_470e73cc..Face7,              !- Name
  Wall,                                   !- Surface Type
  OpaqueConstruction_47cf3687,            !- Construction Name
  Room_1409_470e73cc,                     !- Zone Name
  Room_1409_470e73cc_Space,               !- Space Name
  Outdoors,                               !- Outside Boundary Condition
  ,                                       !- Outside Boundary Condition Object
  SunExposed,                             !- Sun Exposure
  WindExposed,                            !- Wind Exposure
  ,                                       !- View Factor to Ground
  ,                                       !- Number of Vertices
  8.32667268468867e-16, 64.8, 4.5,        !- X,Y,Z Vertex 1 {m}
  8.32667268468867e-16, 64.8, 0,          !- X,Y,Z Vertex 2 {m}
  3.88578058618805e-15, 43.2, 0,          !- X,Y,Z Vertex 3 {m}
  1.86887542478568e-15, 43.2, 4.5;        !- X,Y,Z Vertex 4 {m}

FenestrationSurface:Detailed,
  Aperture_08be2002,                      !- Name
  Window,                                 !- Surface Type
  WindowConstruction_1dfe9b5d,            !- Construction Name
  Room_1409_470e73cc..Face7,              !- Building Surface Name
  ,                                       !- Outside Boundary Condition Object
  ,                                       !- View Factor to Ground
  ,                                       !- Frame and Divider Name
  ,                                       !- Multiplier
  ,                                       !- Number of Vertices
  -1.1577929972775e-15, 64.54, 3.6,       !- X,Y,Z Vertex 1 {m}
  -1.1577929972775e-15, 64.54, 0.1,       !- X,Y,Z Vertex 2 {m}
  1.18554857289313e-15, 57.86, 0.1,       !- X,Y,Z Vertex 3 {m}
  1.18554857289313e-15, 57.86, 3.6;       !- X,Y,Z Vertex 4 {m}

FenestrationSurface:Detailed,
  Aperture_2efa0f47,                      !- Name
  Window,                                 !- Surface Type
  WindowConstruction_1dfe9b5d,            !- Construction Name
  Room_1409_470e73cc..Face7,              !- Building Surface Name
  ,                                       !- Outside Boundary Condition Object
  ,                                       !- View Factor to Ground
  ,                                       !- Frame and Divider Name
  ,                                       !- Multiplier
  ,                                       !- Number of Vertices
  3.89372176476696e-15, 50.14, 3.6,       !- X,Y,Z Vertex 1 {m}
  3.89372176476696e-15, 50.14, 0.1,       !- X,Y,Z Vertex 2 {m}
  6.23706333493759e-15, 43.46, 0.1,       !- X,Y,Z Vertex 3 {m}
  6.23706333493759e-15, 43.46, 3.6;       !- X,Y,Z Vertex 4 {m}

FenestrationSurface:Detailed,
  Aperture_e24572fc,                      !- Name
  Window,                                 !- Surface Type
  WindowConstruction_1dfe9b5d,            !- Construction Name
  Room_1409_470e73cc..Face7,              !- Building Surface Name
  ,                                       !- Outside Boundary Condition Object
  ,                                       !- View Factor to Ground
  ,                                       !- Frame and Divider Name
  ,                                       !- Multiplier
  ,                                       !- Number of Vertices
  1.36796438374473e-15, 57.34, 3.6,       !- X,Y,Z Vertex 1 {m}
  1.36796438374473e-15, 57.34, 0.1,       !- X,Y,Z Vertex 2 {m}
  3.71130595391536e-15, 50.66, 0.1,       !- X,Y,Z Vertex 3 {m}
  3.71130595391536e-15, 50.66, 3.6;       !- X,Y,Z Vertex 4 {m}

ZoneControl:Thermostat,
  Room_1409_470e73cc Thermostat,          !- Name
  Room_1409_470e73cc,                     !- Zone or ZoneList Name
  Room_1409_470e73cc Thermostat Schedule, !- Control Type Schedule Name
  ThermostatSetpoint:DualSetpoint,        !- Control 1 Object Type
  Setpoint_2eba0a66,                      !- Control 1 Name
  ,                                       !- Control 2 Object Type
  ,                                       !- Control 2 Name
  ,                                       !- Control 3 Object Type
  ,                                       !- Control 3 Name
  ,                                       !- Control 4 Object Type
  ,                                       !- Control 4 Name
  0;                                      !- Temperature Difference Between Cutout And Setpoint {deltaC}

Schedule:Compact,
  Room_1409_470e73cc Thermostat Schedule, !- Name
  Room_1409_470e73cc Thermostat Schedule Type Limits, !- Schedule Type Limits Name
  Through: 12/31,                         !- Field 1
  For: AllDays,                           !- Field 2
  Until: 24:00,                           !- Field 3
  4;                                      !- Field 4

ScheduleTypeLimits,
  Room_1409_470e73cc Thermostat Schedule Type Limits, !- Name
  0,                                      !- Lower Limit Value {BasedOnField A3}
  4,                                      !- Upper Limit Value {BasedOnField A3}
  DISCRETE;                               !- Numeric Type

ThermostatSetpoint:DualSetpoint,
  Setpoint_2eba0a66,                      !- Name
  ConstantSchedule_3ec00e82,              !- Heating Setpoint Temperature Schedule Name
  ConstantSchedule_b6307482;              !- Cooling Setpoint Temperature Schedule Name

ScheduleTypeLimits,
  Temperature,                            !- Name
  -273.15,                                !- Lower Limit Value {BasedOnField A3}
  ,                                       !- Upper Limit Value {BasedOnField A3}
  Continuous,                             !- Numeric Type
  temperature;                            !- Unit Type

Schedule:Day:Interval,
  ConstantSchedule_3ec00e82_Day Schedule, !- Name
  Temperature,                            !- Schedule Type Limits Name
  No,                                     !- Interpolate to Timestep
  24:00,                                  !- Time 1 {hh:mm}
  22;                                     !- Value Until Time 1

Schedule:Week:Daily,
  ConstantSchedule_3ec00e82 Week Rule - Jan1-Dec31, !- Name
  ConstantSchedule_3ec00e82_Day Schedule, !- Sunday Schedule:Day Name
  ConstantSchedule_3ec00e82_Day Schedule, !- Monday Schedule:Day Name
  ConstantSchedule_3ec00e82_Day Schedule, !- Tuesday Schedule:Day Name
  ConstantSchedule_3ec00e82_Day Schedule, !- Wednesday Schedule:Day Name
  ConstantSchedule_3ec00e82_Day Schedule, !- Thursday Schedule:Day Name
  ConstantSchedule_3ec00e82_Day Schedule, !- Friday Schedule:Day Name
  ConstantSchedule_3ec00e82_Day Schedule, !- Saturday Schedule:Day Name
  ConstantSchedule_3ec00e82_Day Schedule, !- Holiday Schedule:Day Name
  ConstantSchedule_3ec00e82_Day Schedule, !- SummerDesignDay Schedule:Day Name
  ConstantSchedule_3ec00e82_Day Schedule, !- WinterDesignDay Schedule:Day Name
  ConstantSchedule_3ec00e82_Day Schedule, !- CustomDay1 Schedule:Day Name
  ConstantSchedule_3ec00e82_Day Schedule; !- CustomDay2 Schedule:Day Name

Schedule:Year,
  ConstantSchedule_3ec00e82,              !- Name
  Temperature,                            !- Schedule Type Limits Name
  ConstantSchedule_3ec00e82 Week Rule - Jan1-Dec31, !- Schedule:Week Name 1
  1,                                      !- Start Month 1
  1,                                      !- Start Day 1
  12,                                     !- End Month 1
  31;                                     !- End Day 1

Schedule:Day:Interval,
  ConstantSchedule_b6307482_Day Schedule, !- Name
  Temperature,                            !- Schedule Type Limits Name
  No,                                     !- Interpolate to Timestep
  24:00,                                  !- Time 1 {hh:mm}
  26;                                     !- Value Until Time 1

Schedule:Week:Daily,
  ConstantSchedule_b6307482 Week Rule - Jan1-Dec31, !- Name
  ConstantSchedule_b6307482_Day Schedule, !- Sunday Schedule:Day Name
  ConstantSchedule_b6307482_Day Schedule, !- Monday Schedule:Day Name
  ConstantSchedule_b6307482_Day Schedule, !- Tuesday Schedule:Day Name
  ConstantSchedule_b6307482_Day Schedule, !- Wednesday Schedule:Day Name
  ConstantSchedule_b6307482_Day Schedule, !- Thursday Schedule:Day Name
  ConstantSchedule_b6307482_Day Schedule, !- Friday Schedule:Day Name
  ConstantSchedule_b6307482_Day Schedule, !- Saturday Schedule:Day Name
  ConstantSchedule_b6307482_Day Schedule, !- Holiday Schedule:Day Name
  ConstantSchedule_b6307482_Day Schedule, !- SummerDesignDay Schedule:Day Name
  ConstantSchedule_b6307482_Day Schedule, !- WinterDesignDay Schedule:Day Name
  ConstantSchedule_b6307482_Day Schedule, !- CustomDay1 Schedule:Day Name
  ConstantSchedule_b6307482_Day Schedule; !- CustomDay2 Schedule:Day Name

Schedule:Year,
  ConstantSchedule_b6307482,              !- Name
  Temperature,                            !- Schedule Type Limits Name
  ConstantSchedule_b6307482 Week Rule - Jan1-Dec31, !- Schedule:Week Name 1
  1,                                      !- Start Month 1
  1,                                      !- Start Day 1
  12,                                     !- End Month 1
  31;                                     !- End Day 1

ZoneVentilation:WindandStackOpenArea,
  Aperture_a7937575_Opening,              !- Name
  Room_1409_470e73cc,                     !- Zone or Space Name
  11.69,                                  !- Opening Area {m2}
  Always On Discrete,                     !- Opening Area Fraction Schedule Name
  Autocalculate,                          !- Opening Effectiveness {dimensionless}
  180,                                    !- Effective Angle {deg}
  0.875,                                  !- Height Difference {m}
  0.45,                                   !- Discharge Coefficient for Opening
  -100,                                   !- Minimum Indoor Temperature {C}
  ,                                       !- Minimum Indoor Temperature Schedule Name
  100,                                    !- Maximum Indoor Temperature {C}
  ,                                       !- Maximum Indoor Temperature Schedule Name
  -100,                                   !- Delta Temperature {deltaC}
  ,                                       !- Delta Temperature Schedule Name
  22,                                     !- Minimum Outdoor Temperature {C}
  ,                                       !- Minimum Outdoor Temperature Schedule Name
  26,                                     !- Maximum Outdoor Temperature {C}
  ,                                       !- Maximum Outdoor Temperature Schedule Name
  40;                                     !- Maximum Wind Speed {m/s}

Schedule:Constant,
  Always On Discrete,                     !- Name
  OnOff,                                  !- Schedule Type Limits Name
  1;                                      !- Hourly Value

ZoneVentilation:WindandStackOpenArea,
  Aperture_3b32eb44_Opening,              !- Name
  Room_1409_470e73cc,                     !- Zone or Space Name
  11.69,                                  !- Opening Area {m2}
  Always On Discrete,                     !- Opening Area Fraction Schedule Name
  Autocalculate,                          !- Opening Effectiveness {dimensionless}
  180,                                    !- Effective Angle {deg}
  0.875,                                  !- Height Difference {m}
  0.45,                                   !- Discharge Coefficient for Opening
  -100,                                   !- Minimum Indoor Temperature {C}
  ,                                       !- Minimum Indoor Temperature Schedule Name
  100,                                    !- Maximum Indoor Temperature {C}
  ,                                       !- Maximum Indoor Temperature Schedule Name
  -100,                                   !- Delta Temperature {deltaC}
  ,                                       !- Delta Temperature Schedule Name
  22,                                     !- Minimum Outdoor Temperature {C}
  ,                                       !- Minimum Outdoor Temperature Schedule Name
  26,                                     !- Maximum Outdoor Temperature {C}
  ,                                       !- Maximum Outdoor Temperature Schedule Name
  40;                                     !- Maximum Wind Speed {m/s}

ZoneVentilation:WindandStackOpenArea,
  Aperture_ab659302_Opening,              !- Name
  Room_1409_470e73cc,                     !- Zone or Space Name
  3.248,                                  !- Opening Area {m2}
  Always On Discrete,                     !- Opening Area Fraction Schedule Name
  Autocalculate,                          !- Opening Effectiveness {dimensionless}
  180,                                    !- Effective Angle {deg}
  0.875,                                  !- Height Difference {m}
  0.45,                                   !- Discharge Coefficient for Opening
  -100,                                   !- Minimum Indoor Temperature {C}
  ,                                       !- Minimum Indoor Temperature Schedule Name
  100,                                    !- Maximum Indoor Temperature {C}
  ,                                       !- Maximum Indoor Temperature Schedule Name
  -100,                                   !- Delta Temperature {deltaC}
  ,                                       !- Delta Temperature Schedule Name
  22,                                     !- Minimum Outdoor Temperature {C}
  ,                                       !- Minimum Outdoor Temperature Schedule Name
  26,                                     !- Maximum Outdoor Temperature {C}
  ,                                       !- Maximum Outdoor Temperature Schedule Name
  40;                                     !- Maximum Wind Speed {m/s}

ZoneVentilation:WindandStackOpenArea,
  Aperture_9faf1f04_Opening,              !- Name
  Room_1409_470e73cc,                     !- Zone or Space Name
  11.69,                                  !- Opening Area {m2}
  Always On Discrete,                     !- Opening Area Fraction Schedule Name
  Autocalculate,                          !- Opening Effectiveness {dimensionless}
  180,                                    !- Effective Angle {deg}
  0.875,                                  !- Height Difference {m}
  0.45,                                   !- Discharge Coefficient for Opening
  -100,                                   !- Minimum Indoor Temperature {C}
  ,                                       !- Minimum Indoor Temperature Schedule Name
  100,                                    !- Maximum Indoor Temperature {C}
  ,                                       !- Maximum Indoor Temperature Schedule Name
  -100,                                   !- Delta Temperature {deltaC}
  ,                                       !- Delta Temperature Schedule Name
  22,                                     !- Minimum Outdoor Temperature {C}
  ,                                       !- Minimum Outdoor Temperature Schedule Name
  26,                                     !- Maximum Outdoor Temperature {C}
  ,                                       !- Maximum Outdoor Temperature Schedule Name
  40;                                     !- Maximum Wind Speed {m/s}

ZoneVentilation:WindandStackOpenArea,
  Aperture_de268943_Opening,              !- Name
  Room_1409_470e73cc,                     !- Zone or Space Name
  11.69,                                  !- Opening Area {m2}
  Always On Discrete,                     !- Opening Area Fraction Schedule Name
  Autocalculate,                          !- Opening Effectiveness {dimensionless}
  180,                                    !- Effective Angle {deg}
  0.875,                                  !- Height Difference {m}
  0.45,                                   !- Discharge Coefficient for Opening
  -100,                                   !- Minimum Indoor Temperature {C}
  ,                                       !- Minimum Indoor Temperature Schedule Name
  100,                                    !- Maximum Indoor Temperature {C}
  ,                                       !- Maximum Indoor Temperature Schedule Name
  -100,                                   !- Delta Temperature {deltaC}
  ,                                       !- Delta Temperature Schedule Name
  22,                                     !- Minimum Outdoor Temperature {C}
  ,                                       !- Minimum Outdoor Temperature Schedule Name
  26,                                     !- Maximum Outdoor Temperature {C}
  ,                                       !- Maximum Outdoor Temperature Schedule Name
  40;                                     !- Maximum Wind Speed {m/s}

ZoneVentilation:WindandStackOpenArea,
  Aperture_bb95ffdf_Opening,              !- Name
  Room_1409_470e73cc,                     !- Zone or Space Name
  11.69,                                  !- Opening Area {m2}
  Always On Discrete,                     !- Opening Area Fraction Schedule Name
  Autocalculate,                          !- Opening Effectiveness {dimensionless}
  0,                                      !- Effective Angle {deg}
  0.875,                                  !- Height Difference {m}
  0.45,                                   !- Discharge Coefficient for Opening
  -100,                                   !- Minimum Indoor Temperature {C}
  ,                                       !- Minimum Indoor Temperature Schedule Name
  100,                                    !- Maximum Indoor Temperature {C}
  ,                                       !- Maximum Indoor Temperature Schedule Name
  -100,                                   !- Delta Temperature {deltaC}
  ,                                       !- Delta Temperature Schedule Name
  22,                                     !- Minimum Outdoor Temperature {C}
  ,                                       !- Minimum Outdoor Temperature Schedule Name
  26,                                     !- Maximum Outdoor Temperature {C}
  ,                                       !- Maximum Outdoor Temperature Schedule Name
  40;                                     !- Maximum Wind Speed {m/s}

ZoneVentilation:WindandStackOpenArea,
  Aperture_6b68df64_Opening,              !- Name
  Room_1409_470e73cc,                     !- Zone or Space Name
  11.69,                                  !- Opening Area {m2}
  Always On Discrete,                     !- Opening Area Fraction Schedule Name
  Autocalculate,                          !- Opening Effectiveness {dimensionless}
  0,                                      !- Effective Angle {deg}
  0.875,                                  !- Height Difference {m}
  0.45,                                   !- Discharge Coefficient for Opening
  -100,                                   !- Minimum Indoor Temperature {C}
  ,                                       !- Minimum Indoor Temperature Schedule Name
  100,                                    !- Maximum Indoor Temperature {C}
  ,                                       !- Maximum Indoor Temperature Schedule Name
  -100,                                   !- Delta Temperature {deltaC}
  ,                                       !- Delta Temperature Schedule Name
  22,                                     !- Minimum Outdoor Temperature {C}
  ,                                       !- Minimum Outdoor Temperature Schedule Name
  26,                                     !- Maximum Outdoor Temperature {C}
  ,                                       !- Maximum Outdoor Temperature Schedule Name
  40;                                     !- Maximum Wind Speed {m/s}

ZoneVentilation:WindandStackOpenArea,
  Aperture_77eb1123_Opening,              !- Name
  Room_1409_470e73cc,                     !- Zone or Space Name
  11.69,                                  !- Opening Area {m2}
  Always On Discrete,                     !- Opening Area Fraction Schedule Name
  Autocalculate,                          !- Opening Effectiveness {dimensionless}
  0,                                      !- Effective Angle {deg}
  0.875,                                  !- Height Difference {m}
  0.45,                                   !- Discharge Coefficient for Opening
  -100,                                   !- Minimum Indoor Temperature {C}
  ,                                       !- Minimum Indoor Temperature Schedule Name
  100,                                    !- Maximum Indoor Temperature {C}
  ,                                       !- Maximum Indoor Temperature Schedule Name
  -100,                                   !- Delta Temperature {deltaC}
  ,                                       !- Delta Temperature Schedule Name
  22,                                     !- Minimum Outdoor Temperature {C}
  ,                                       !- Minimum Outdoor Temperature Schedule Name
  26,                                     !- Maximum Outdoor Temperature {C}
  ,                                       !- Maximum Outdoor Temperature Schedule Name
  40;                                     !- Maximum Wind Speed {m/s}

ZoneVentilation:WindandStackOpenArea,
  Aperture_708fc31e_Opening,              !- Name
  Room_1409_470e73cc,                     !- Zone or Space Name
  11.69,                                  !- Opening Area {m2}
  Always On Discrete,                     !- Opening Area Fraction Schedule Name
  Autocalculate,                          !- Opening Effectiveness {dimensionless}
  0,                                      !- Effective Angle {deg}
  0.875,                                  !- Height Difference {m}
  0.45,                                   !- Discharge Coefficient for Opening
  -100,                                   !- Minimum Indoor Temperature {C}
  ,                                       !- Minimum Indoor Temperature Schedule Name
  100,                                    !- Maximum Indoor Temperature {C}
  ,                                       !- Maximum Indoor Temperature Schedule Name
  -100,                                   !- Delta Temperature {deltaC}
  ,                                       !- Delta Temperature Schedule Name
  22,                                     !- Minimum Outdoor Temperature {C}
  ,                                       !- Minimum Outdoor Temperature Schedule Name
  26,                                     !- Maximum Outdoor Temperature {C}
  ,                                       !- Maximum Outdoor Temperature Schedule Name
  40;                                     !- Maximum Wind Speed {m/s}

ZoneVentilation:WindandStackOpenArea,
  Aperture_36dd1c3c_Opening,              !- Name
  Room_1409_470e73cc,                     !- Zone or Space Name
  11.69,                                  !- Opening Area {m2}
  Always On Discrete,                     !- Opening Area Fraction Schedule Name
  Autocalculate,                          !- Opening Effectiveness {dimensionless}
  0,                                      !- Effective Angle {deg}
  0.875,                                  !- Height Difference {m}
  0.45,                                   !- Discharge Coefficient for Opening
  -100,                                   !- Minimum Indoor Temperature {C}
  ,                                       !- Minimum Indoor Temperature Schedule Name
  100,                                    !- Maximum Indoor Temperature {C}
  ,                                       !- Maximum Indoor Temperature Schedule Name
  -100,                                   !- Delta Temperature {deltaC}
  ,                                       !- Delta Temperature Schedule Name
  22,                                     !- Minimum Outdoor Temperature {C}
  ,                                       !- Minimum Outdoor Temperature Schedule Name
  26,                                     !- Maximum Outdoor Temperature {C}
  ,                                       !- Maximum Outdoor Temperature Schedule Name
  40;                                     !- Maximum Wind Speed {m/s}

ZoneVentilation:WindandStackOpenArea,
  Aperture_cbc67021_Opening,              !- Name
  Room_1409_470e73cc,                     !- Zone or Space Name
  11.69,                                  !- Opening Area {m2}
  Always On Discrete,                     !- Opening Area Fraction Schedule Name
  Autocalculate,                          !- Opening Effectiveness {dimensionless}
  0,                                      !- Effective Angle {deg}
  0.875,                                  !- Height Difference {m}
  0.45,                                   !- Discharge Coefficient for Opening
  -100,                                   !- Minimum Indoor Temperature {C}
  ,                                       !- Minimum Indoor Temperature Schedule Name
  100,                                    !- Maximum Indoor Temperature {C}
  ,                                       !- Maximum Indoor Temperature Schedule Name
  -100,                                   !- Delta Temperature {deltaC}
  ,                                       !- Delta Temperature Schedule Name
  22,                                     !- Minimum Outdoor Temperature {C}
  ,                                       !- Minimum Outdoor Temperature Schedule Name
  26,                                     !- Maximum Outdoor Temperature {C}
  ,                                       !- Maximum Outdoor Temperature Schedule Name
  40;                                     !- Maximum Wind Speed {m/s}

ZoneVentilation:WindandStackOpenArea,
  Aperture_0388a41c_Opening,              !- Name
  Room_1409_470e73cc,                     !- Zone or Space Name
  11.69,                                  !- Opening Area {m2}
  Always On Discrete,                     !- Opening Area Fraction Schedule Name
  Autocalculate,                          !- Opening Effectiveness {dimensionless}
  0,                                      !- Effective Angle {deg}
  0.875,                                  !- Height Difference {m}
  0.45,                                   !- Discharge Coefficient for Opening
  -100,                                   !- Minimum Indoor Temperature {C}
  ,                                       !- Minimum Indoor Temperature Schedule Name
  100,                                    !- Maximum Indoor Temperature {C}
  ,                                       !- Maximum Indoor Temperature Schedule Name
  -100,                                   !- Delta Temperature {deltaC}
  ,                                       !- Delta Temperature Schedule Name
  22,                                     !- Minimum Outdoor Temperature {C}
  ,                                       !- Minimum Outdoor Temperature Schedule Name
  26,                                     !- Maximum Outdoor Temperature {C}
  ,                                       !- Maximum Outdoor Temperature Schedule Name
  40;                                     !- Maximum Wind Speed {m/s}

ZoneVentilation:WindandStackOpenArea,
  Aperture_20560f77_Opening,              !- Name
  Room_1409_470e73cc,                     !- Zone or Space Name
  3.248,                                  !- Opening Area {m2}
  Always On Discrete,                     !- Opening Area Fraction Schedule Name
  Autocalculate,                          !- Opening Effectiveness {dimensionless}
  0,                                      !- Effective Angle {deg}
  0.875,                                  !- Height Difference {m}
  0.45,                                   !- Discharge Coefficient for Opening
  -100,                                   !- Minimum Indoor Temperature {C}
  ,                                       !- Minimum Indoor Temperature Schedule Name
  100,                                    !- Maximum Indoor Temperature {C}
  ,                                       !- Maximum Indoor Temperature Schedule Name
  -100,                                   !- Delta Temperature {deltaC}
  ,                                       !- Delta Temperature Schedule Name
  22,                                     !- Minimum Outdoor Temperature {C}
  ,                                       !- Minimum Outdoor Temperature Schedule Name
  26,                                     !- Maximum Outdoor Temperature {C}
  ,                                       !- Maximum Outdoor Temperature Schedule Name
  40;                                     !- Maximum Wind Speed {m/s}

ZoneVentilation:WindandStackOpenArea,
  Aperture_03765db6_Opening,              !- Name
  Room_1409_470e73cc,                     !- Zone or Space Name
  11.69,                                  !- Opening Area {m2}
  Always On Discrete,                     !- Opening Area Fraction Schedule Name
  Autocalculate,                          !- Opening Effectiveness {dimensionless}
  90,                                     !- Effective Angle {deg}
  0.875,                                  !- Height Difference {m}
  0.45,                                   !- Discharge Coefficient for Opening
  -100,                                   !- Minimum Indoor Temperature {C}
  ,                                       !- Minimum Indoor Temperature Schedule Name
  100,                                    !- Maximum Indoor Temperature {C}
  ,                                       !- Maximum Indoor Temperature Schedule Name
  -100,                                   !- Delta Temperature {deltaC}
  ,                                       !- Delta Temperature Schedule Name
  22,                                     !- Minimum Outdoor Temperature {C}
  ,                                       !- Minimum Outdoor Temperature Schedule Name
  26,                                     !- Maximum Outdoor Temperature {C}
  ,                                       !- Maximum Outdoor Temperature Schedule Name
  40;                                     !- Maximum Wind Speed {m/s}

ZoneVentilation:WindandStackOpenArea,
  Aperture_86fdfe8a_Opening,              !- Name
  Room_1409_470e73cc,                     !- Zone or Space Name
  11.69,                                  !- Opening Area {m2}
  Always On Discrete,                     !- Opening Area Fraction Schedule Name
  Autocalculate,                          !- Opening Effectiveness {dimensionless}
  90,                                     !- Effective Angle {deg}
  0.875,                                  !- Height Difference {m}
  0.45,                                   !- Discharge Coefficient for Opening
  -100,                                   !- Minimum Indoor Temperature {C}
  ,                                       !- Minimum Indoor Temperature Schedule Name
  100,                                    !- Maximum Indoor Temperature {C}
  ,                                       !- Maximum Indoor Temperature Schedule Name
  -100,                                   !- Delta Temperature {deltaC}
  ,                                       !- Delta Temperature Schedule Name
  22,                                     !- Minimum Outdoor Temperature {C}
  ,                                       !- Minimum Outdoor Temperature Schedule Name
  26,                                     !- Maximum Outdoor Temperature {C}
  ,                                       !- Maximum Outdoor Temperature Schedule Name
  40;                                     !- Maximum Wind Speed {m/s}

ZoneVentilation:WindandStackOpenArea,
  Aperture_72afe0cc_Opening,              !- Name
  Room_1409_470e73cc,                     !- Zone or Space Name
  11.69,                                  !- Opening Area {m2}
  Always On Discrete,                     !- Opening Area Fraction Schedule Name
  Autocalculate,                          !- Opening Effectiveness {dimensionless}
  90,                                     !- Effective Angle {deg}
  0.875,                                  !- Height Difference {m}
  0.45,                                   !- Discharge Coefficient for Opening
  -100,                                   !- Minimum Indoor Temperature {C}
  ,                                       !- Minimum Indoor Temperature Schedule Name
  100,                                    !- Maximum Indoor Temperature {C}
  ,                                       !- Maximum Indoor Temperature Schedule Name
  -100,                                   !- Delta Temperature {deltaC}
  ,                                       !- Delta Temperature Schedule Name
  22,                                     !- Minimum Outdoor Temperature {C}
  ,                                       !- Minimum Outdoor Temperature Schedule Name
  26,                                     !- Maximum Outdoor Temperature {C}
  ,                                       !- Maximum Outdoor Temperature Schedule Name
  40;                                     !- Maximum Wind Speed {m/s}

ZoneVentilation:WindandStackOpenArea,
  Aperture_2efa0f47_Opening,              !- Name
  Room_1409_470e73cc,                     !- Zone or Space Name
  11.69,                                  !- Opening Area {m2}
  Always On Discrete,                     !- Opening Area Fraction Schedule Name
  Autocalculate,                          !- Opening Effectiveness {dimensionless}
  270,                                    !- Effective Angle {deg}
  0.875,                                  !- Height Difference {m}
  0.45,                                   !- Discharge Coefficient for Opening
  -100,                                   !- Minimum Indoor Temperature {C}
  ,                                       !- Minimum Indoor Temperature Schedule Name
  100,                                    !- Maximum Indoor Temperature {C}
  ,                                       !- Maximum Indoor Temperature Schedule Name
  -100,                                   !- Delta Temperature {deltaC}
  ,                                       !- Delta Temperature Schedule Name
  22,                                     !- Minimum Outdoor Temperature {C}
  ,                                       !- Minimum Outdoor Temperature Schedule Name
  26,                                     !- Maximum Outdoor Temperature {C}
  ,                                       !- Maximum Outdoor Temperature Schedule Name
  40;                                     !- Maximum Wind Speed {m/s}

ZoneVentilation:WindandStackOpenArea,
  Aperture_e24572fc_Opening,              !- Name
  Room_1409_470e73cc,                     !- Zone or Space Name
  11.69,                                  !- Opening Area {m2}
  Always On Discrete,                     !- Opening Area Fraction Schedule Name
  Autocalculate,                          !- Opening Effectiveness {dimensionless}
  270,                                    !- Effective Angle {deg}
  0.875,                                  !- Height Difference {m}
  0.45,                                   !- Discharge Coefficient for Opening
  -100,                                   !- Minimum Indoor Temperature {C}
  ,                                       !- Minimum Indoor Temperature Schedule Name
  100,                                    !- Maximum Indoor Temperature {C}
  ,                                       !- Maximum Indoor Temperature Schedule Name
  -100,                                   !- Delta Temperature {deltaC}
  ,                                       !- Delta Temperature Schedule Name
  22,                                     !- Minimum Outdoor Temperature {C}
  ,                                       !- Minimum Outdoor Temperature Schedule Name
  26,                                     !- Maximum Outdoor Temperature {C}
  ,                                       !- Maximum Outdoor Temperature Schedule Name
  40;                                     !- Maximum Wind Speed {m/s}

ZoneVentilation:WindandStackOpenArea,
  Aperture_08be2002_Opening,              !- Name
  Room_1409_470e73cc,                     !- Zone or Space Name
  11.69,                                  !- Opening Area {m2}
  Always On Discrete,                     !- Opening Area Fraction Schedule Name
  Autocalculate,                          !- Opening Effectiveness {dimensionless}
  270,                                    !- Effective Angle {deg}
  0.875,                                  !- Height Difference {m}
  0.45,                                   !- Discharge Coefficient for Opening
  -100,                                   !- Minimum Indoor Temperature {C}
  ,                                       !- Minimum Indoor Temperature Schedule Name
  100,                                    !- Maximum Indoor Temperature {C}
  ,                                       !- Maximum Indoor Temperature Schedule Name
  -100,                                   !- Delta Temperature {deltaC}
  ,                                       !- Delta Temperature Schedule Name
  22,                                     !- Minimum Outdoor Temperature {C}
  ,                                       !- Minimum Outdoor Temperature Schedule Name
  26,                                     !- Maximum Outdoor Temperature {C}
  ,                                       !- Maximum Outdoor Temperature Schedule Name
  40;                                     !- Maximum Wind Speed {m/s}

ZoneHVAC:EquipmentConnections,
  Room_1409_470e73cc,                     !- Zone Name
  Room_1409_470e73cc Equipment List,      !- Zone Conditioning Equipment List Name
  Room_1409_470e73cc Inlet Node List,     !- Zone Air Inlet Node or NodeList Name
  Room_1409_470e73cc Exhaust Node List,   !- Zone Air Exhaust Node or NodeList Name
  Node 1;                                 !- Zone Air Node Name

NodeList,
  Room_1409_470e73cc Inlet Node List,     !- Name
  Node 19;                                !- Node Name 1

NodeList,
  Room_1409_470e73cc Exhaust Node List,   !- Name
  Node 18;                                !- Node Name 1

ZoneHVAC:IdealLoadsAirSystem,
  Room_1409_470e73cc Ideal Loads Air System, !- Name
  ,                                       !- Availability Schedule Name
  Node 19,                                !- Zone Supply Air Node Name
  Node 18,                                !- Zone Exhaust Air Node Name
  ,                                       !- System Inlet Air Node Name
  50,                                     !- Maximum Heating Supply Air Temperature {C}
  13,                                     !- Minimum Cooling Supply Air Temperature {C}
  ,                                       !- Maximum Heating Supply Air Humidity Ratio {kgWater/kgDryAir}
  ,                                       !- Minimum Cooling Supply Air Humidity Ratio {kgWater/kgDryAir}
  LimitCapacity,                          !- Heating Limit
  ,                                       !- Maximum Heating Air Flow Rate {m3/s}
  Autosize,                               !- Maximum Sensible Heating Capacity {W}
  LimitFlowRateAndCapacity,               !- Cooling Limit
  Autosize,                               !- Maximum Cooling Air Flow Rate {m3/s}
  Autosize,                               !- Maximum Total Cooling Capacity {W}
  WeeklySchedule_2856ceac,                !- Heating Availability Schedule Name
  WeeklySchedule_2856ceac,                !- Cooling Availability Schedule Name
  None,                                   !- Dehumidification Control Type
  ,                                       !- Cooling Sensible Heat Ratio {dimensionless}
  ,                                       !- Humidification Control Type
  Ventilation_b96face6,                   !- Design Specification Outdoor Air Object Name
  ,                                       !- Outdoor Air Inlet Node Name
  None,                                   !- Demand Controlled Ventilation Type
  DifferentialDryBulb,                    !- Outdoor Air Economizer Type
  ,                                       !- Heat Recovery Type
  0,                                      !- Sensible Heat Recovery Effectiveness {dimensionless}
  0;                                      !- Latent Heat Recovery Effectiveness {dimensionless}

DesignSpecification:OutdoorAir,
  Ventilation_b96face6,                   !- Name
  Sum,                                    !- Outdoor Air Method
  0.00833333333333333,                    !- Outdoor Air Flow per Person {m3/s-person}
  0,                                      !- Outdoor Air Flow per Zone Floor Area {m3/s-m2}
  0,                                      !- Outdoor Air Flow per Zone {m3/s}
  0,                                      !- Outdoor Air Flow Air Changes per Hour {1/hr}
  WeeklySchedule_2856ceac;                !- Outdoor Air Schedule Name

ZoneHVAC:EquipmentList,
  Room_1409_470e73cc Equipment List,      !- Name
  SequentialLoad,                         !- Load Distribution Scheme
  ZoneHVAC:IdealLoadsAirSystem,           !- Zone Equipment Object Type 1
  Room_1409_470e73cc Ideal Loads Air System, !- Zone Equipment Name 1
  1,                                      !- Zone Equipment Cooling Sequence 1
  1,                                      !- Zone Equipment Heating or No-Load Sequence 1
  ,                                       !- Zone Equipment Sequential Cooling Fraction Schedule Name 1
  ;                                       !- Zone Equipment Sequential Heating Fraction Schedule Name 1

Sizing:Zone,
  Room_1409_470e73cc,                     !- Zone or ZoneList Name
  SupplyAirTemperature,                   !- Zone Cooling Design Supply Air Temperature Input Method
  14,                                     !- Zone Cooling Design Supply Air Temperature {C}
  11.11,                                  !- Zone Cooling Design Supply Air Temperature Difference {deltaC}
  SupplyAirTemperature,                   !- Zone Heating Design Supply Air Temperature Input Method
  40,                                     !- Zone Heating Design Supply Air Temperature {C}
  11.11,                                  !- Zone Heating Design Supply Air Temperature Difference {deltaC}
  0.0085,                                 !- Zone Cooling Design Supply Air Humidity Ratio {kgWater/kgDryAir}
  0.008,                                  !- Zone Heating Design Supply Air Humidity Ratio {kgWater/kgDryAir}
  Room_1409_470e73cc DSOA Space List,     !- Design Specification Outdoor Air Object Name
  ,                                       !- Zone Heating Sizing Factor
  ,                                       !- Zone Cooling Sizing Factor
  DesignDay,                              !- Cooling Design Air Flow Method
  0,                                      !- Cooling Design Air Flow Rate {m3/s}
  0.000762,                               !- Cooling Minimum Air Flow per Zone Floor Area {m3/s-m2}
  0,                                      !- Cooling Minimum Air Flow {m3/s}
  0,                                      !- Cooling Minimum Air Flow Fraction
  DesignDay,                              !- Heating Design Air Flow Method
  0,                                      !- Heating Design Air Flow Rate {m3/s}
  0.002032,                               !- Heating Maximum Air Flow per Zone Floor Area {m3/s-m2}
  0.1415762,                              !- Heating Maximum Air Flow {m3/s}
  0.3,                                    !- Heating Maximum Air Flow Fraction
  ,                                       !- Design Specification Zone Air Distribution Object Name
  No,                                     !- Account for Dedicated Outdoor Air System
  ,                                       !- Dedicated Outdoor Air System Control Strategy
  ,                                       !- Dedicated Outdoor Air Low Setpoint Temperature for Design {C}
  ,                                       !- Dedicated Outdoor Air High Setpoint Temperature for Design {C}
  Sensible Load Only No Latent Load,      !- Zone Load Sizing Method
  HumidityRatioDifference,                !- Zone Latent Cooling Design Supply Air Humidity Ratio Input Method
  ,                                       !- Zone Dehumidification Design Supply Air Humidity Ratio {kgWater/kgDryAir}
  0.005,                                  !- Zone Cooling Design Supply Air Humidity Ratio Difference {kgWater/kgDryAir}
  HumidityRatioDifference,                !- Zone Latent Heating Design Supply Air Humidity Ratio Input Method
  ,                                       !- Zone Humidification Design Supply Air Humidity Ratio {kgWater/kgDryAir}
  0.005;                                  !- Zone Humidification Design Supply Air Humidity Ratio Difference {kgWater/kgDryAir}

DesignSpecification:OutdoorAir:SpaceList,
  Room_1409_470e73cc DSOA Space List,     !- Name
  Room_1409_470e73cc_Space,               !- Space Name 1
  Ventilation_b96face6;                   !- Space Design Specification Outdoor Air Object Name 1

Zone,
  Room_1410_d508b878,                     !- Name
  ,                                       !- Direction of Relative North {deg}
  0,                                      !- X Origin {m}
  0,                                      !- Y Origin {m}
  0,                                      !- Z Origin {m}
  ,                                       !- Type
  1,                                      !- Multiplier
  4.5,                                    !- Ceiling Height {m}
  5363.1072,                              !- Volume {m3}
  ,                                       !- Floor Area {m2}
  ,                                       !- Zone Inside Convection Algorithm
  ,                                       !- Zone Outside Convection Algorithm
  Yes;                                    !- Part of Total Floor Area

Space,
  Room_1410_d508b878_Space,               !- Name
  Room_1410_d508b878,                     !- Zone Name
  ,                                       !- Ceiling Height {m}
  ,                                       !- Volume {m3}
  ,                                       !- Floor Area {m2}
  ProgramType_f9e2e425;                   !- Space Type

BuildingSurface:Detailed,
  Room_1410_d508b878..Face0,              !- Name
  Floor,                                  !- Surface Type
  OpaqueConstruction_47cf3687,            !- Construction Name
  Room_1410_d508b878,                     !- Zone Name
  Room_1410_d508b878_Space,               !- Space Name
  Ground,                                 !- Outside Boundary Condition
  ,                                       !- Outside Boundary Condition Object
  NoSun,                                  !- Sun Exposure
  NoWind,                                 !- Wind Exposure
  ,                                       !- View Factor to Ground
  ,                                       !- Number of Vertices
  64.8, 28.8, 0,                          !- X,Y,Z Vertex 1 {m}
  64.8, 8.5265128291212e-14, 0,           !- X,Y,Z Vertex 2 {m}
  54, 1.38777878078145e-15, 0,            !- X,Y,Z Vertex 3 {m}
  54, 28.8, 0;                            !- X,Y,Z Vertex 4 {m}

BuildingSurface:Detailed,
  Room_1410_d508b878..Face1,              !- Name
  Floor,                                  !- Surface Type
  OpaqueConstruction_47cf3687,            !- Construction Name
  Room_1410_d508b878,                     !- Zone Name
  Room_1410_d508b878_Space,               !- Space Name
  Ground,                                 !- Outside Boundary Condition
  ,                                       !- Outside Boundary Condition Object
  NoSun,                                  !- Sun Exposure
  NoWind,                                 !- Wind Exposure
  ,                                       !- View Factor to Ground
  ,                                       !- Number of Vertices
  86.4, 59.976, 0,                        !- X,Y,Z Vertex 1 {m}
  86.4, 43.2, 0,                          !- X,Y,Z Vertex 2 {m}
  79.2, 43.2, 0,                          !- X,Y,Z Vertex 3 {m}
  79.2, 59.976, 0;                        !- X,Y,Z Vertex 4 {m}

BuildingSurface:Detailed,
  Room_1410_d508b878..Face10,             !- Name
  Ceiling,                                !- Surface Type
  OpaqueConstruction_47cf3687,            !- Construction Name
  Room_1410_d508b878,                     !- Zone Name
  Room_1410_d508b878_Space,               !- Space Name
  Surface,                                !- Outside Boundary Condition
  Room_1412_6e864ed8..Face4,              !- Outside Boundary Condition Object
  NoSun,                                  !- Sun Exposure
  NoWind,                                 !- Wind Exposure
  ,                                       !- View Factor to Ground
  ,                                       !- Number of Vertices
  64.8, 59.976, 4.5,                      !- X,Y,Z Vertex 1 {m}
  64.8, 43.2, 4.5,                        !- X,Y,Z Vertex 2 {m}
  72, 43.2, 4.5,                          !- X,Y,Z Vertex 3 {m}
  72, 59.976, 4.5;                        !- X,Y,Z Vertex 4 {m}

BuildingSurface:Detailed,
  Room_1410_d508b878..Face11,             !- Name
  Ceiling,                                !- Surface Type
  OpaqueConstruction_47cf3687,            !- Construction Name
  Room_1410_d508b878,                     !- Zone Name
  Room_1410_d508b878_Space,               !- Space Name
  Surface,                                !- Outside Boundary Condition
  Room_1412_6e864ed8..Face5,              !- Outside Boundary Condition Object
  NoSun,                                  !- Sun Exposure
  NoWind,                                 !- Wind Exposure
  ,                                       !- View Factor to Ground
  ,                                       !- Number of Vertices
  64.8, 28.8, 4.5,                        !- X,Y,Z Vertex 1 {m}
  64.8, 7.105427357601e-14, 4.5,          !- X,Y,Z Vertex 2 {m}
  79.2, -9.06682136777228e-16, 4.5,       !- X,Y,Z Vertex 3 {m}
  79.2, 28.8, 4.5;                        !- X,Y,Z Vertex 4 {m}

BuildingSurface:Detailed,
  Room_1410_d508b878..Face12,             !- Name
  Wall,                                   !- Surface Type
  OpaqueConstruction_47cf3687,            !- Construction Name
  Room_1410_d508b878,                     !- Zone Name
  Room_1410_d508b878_Space,               !- Space Name
  Outdoors,                               !- Outside Boundary Condition
  ,                                       !- Outside Boundary Condition Object
  SunExposed,                             !- Sun Exposure
  WindExposed,                            !- Wind Exposure
  ,                                       !- View Factor to Ground
  ,                                       !- Number of Vertices
  64.8, 59.976, 4.5,                      !- X,Y,Z Vertex 1 {m}
  64.8, 59.976, 0,                        !- X,Y,Z Vertex 2 {m}
  64.8, 28.8, 0,                          !- X,Y,Z Vertex 3 {m}
  64.8, 28.8, 4.5;                        !- X,Y,Z Vertex 4 {m}

FenestrationSurface:Detailed,
  Aperture_1149f172,                      !- Name
  Window,                                 !- Surface Type
  WindowConstruction_1dfe9b5d,            !- Construction Name
  Room_1410_d508b878..Face12,             !- Building Surface Name
  ,                                       !- Outside Boundary Condition Object
  ,                                       !- View Factor to Ground
  ,                                       !- Frame and Divider Name
  ,                                       !- Multiplier
  ,                                       !- Number of Vertices
  64.8, 50.14, 3.6,                       !- X,Y,Z Vertex 1 {m}
  64.8, 50.14, 0.1,                       !- X,Y,Z Vertex 2 {m}
  64.8, 43.46, 0.1,                       !- X,Y,Z Vertex 3 {m}
  64.8, 43.46, 3.6;                       !- X,Y,Z Vertex 4 {m}

FenestrationSurface:Detailed,
  Aperture_1d73e1c9,                      !- Name
  Window,                                 !- Surface Type
  WindowConstruction_1dfe9b5d,            !- Construction Name
  Room_1410_d508b878..Face12,             !- Building Surface Name
  ,                                       !- Outside Boundary Condition Object
  ,                                       !- View Factor to Ground
  ,                                       !- Frame and Divider Name
  ,                                       !- Multiplier
  ,                                       !- Number of Vertices
  64.8, 59.716, 3.6,                      !- X,Y,Z Vertex 1 {m}
  64.8, 59.716, 0.1,                      !- X,Y,Z Vertex 2 {m}
  64.8, 57.86, 0.1,                       !- X,Y,Z Vertex 3 {m}
  64.8, 57.86, 3.6;                       !- X,Y,Z Vertex 4 {m}

FenestrationSurface:Detailed,
  Aperture_3d51005e,                      !- Name
  Window,                                 !- Surface Type
  WindowConstruction_1dfe9b5d,            !- Construction Name
  Room_1410_d508b878..Face12,             !- Building Surface Name
  ,                                       !- Outside Boundary Condition Object
  ,                                       !- View Factor to Ground
  ,                                       !- Frame and Divider Name
  ,                                       !- Multiplier
  ,                                       !- Number of Vertices
  64.8, 57.34, 3.6,                       !- X,Y,Z Vertex 1 {m}
  64.8, 57.34, 0.1,                       !- X,Y,Z Vertex 2 {m}
  64.8, 50.66, 0.1,                       !- X,Y,Z Vertex 3 {m}
  64.8, 50.66, 3.6;                       !- X,Y,Z Vertex 4 {m}

FenestrationSurface:Detailed,
  Aperture_7418708d,                      !- Name
  Window,                                 !- Surface Type
  WindowConstruction_1dfe9b5d,            !- Construction Name
  Room_1410_d508b878..Face12,             !- Building Surface Name
  ,                                       !- Outside Boundary Condition Object
  ,                                       !- View Factor to Ground
  ,                                       !- Frame and Divider Name
  ,                                       !- Multiplier
  ,                                       !- Number of Vertices
  64.8, 42.94, 3.6,                       !- X,Y,Z Vertex 1 {m}
  64.8, 42.94, 0.1,                       !- X,Y,Z Vertex 2 {m}
  64.8, 36.26, 0.1,                       !- X,Y,Z Vertex 3 {m}
  64.8, 36.26, 3.6;                       !- X,Y,Z Vertex 4 {m}

FenestrationSurface:Detailed,
  Aperture_ebf03637,                      !- Name
  Window,                                 !- Surface Type
  WindowConstruction_1dfe9b5d,            !- Construction Name
  Room_1410_d508b878..Face12,             !- Building Surface Name
  ,                                       !- Outside Boundary Condition Object
  ,                                       !- View Factor to Ground
  ,                                       !- Frame and Divider Name
  ,                                       !- Multiplier
  ,                                       !- Number of Vertices
  64.8, 35.74, 3.6,                       !- X,Y,Z Vertex 1 {m}
  64.8, 35.74, 0.1,                       !- X,Y,Z Vertex 2 {m}
  64.8, 29.06, 0.1,                       !- X,Y,Z Vertex 3 {m}
  64.8, 29.06, 3.6;                       !- X,Y,Z Vertex 4 {m}

BuildingSurface:Detailed,
  Room_1410_d508b878..Face13,             !- Name
  Wall,                                   !- Surface Type
  OpaqueConstruction_47cf3687,            !- Construction Name
  Room_1410_d508b878,                     !- Zone Name
  Room_1410_d508b878_Space,               !- Space Name
  Outdoors,                               !- Outside Boundary Condition
  ,                                       !- Outside Boundary Condition Object
  SunExposed,                             !- Sun Exposure
  WindExposed,                            !- Wind Exposure
  ,                                       !- View Factor to Ground
  ,                                       !- Number of Vertices
  54, 28.8, 4.5,                          !- X,Y,Z Vertex 1 {m}
  54, 28.8, 0,                            !- X,Y,Z Vertex 2 {m}
  54, 1.38777878078145e-15, 0,            !- X,Y,Z Vertex 3 {m}
  54, 1.38777878078145e-15, 4.5;          !- X,Y,Z Vertex 4 {m}

FenestrationSurface:Detailed,
  Aperture_23a97e37,                      !- Name
  Window,                                 !- Surface Type
  WindowConstruction_1dfe9b5d,            !- Construction Name
  Room_1410_d508b878..Face13,             !- Building Surface Name
  ,                                       !- Outside Boundary Condition Object
  ,                                       !- View Factor to Ground
  ,                                       !- Frame and Divider Name
  ,                                       !- Multiplier
  ,                                       !- Number of Vertices
  54, 28.54, 3.6,                         !- X,Y,Z Vertex 1 {m}
  54, 28.54, 0.1,                         !- X,Y,Z Vertex 2 {m}
  54, 21.86, 0.1,                         !- X,Y,Z Vertex 3 {m}
  54, 21.86, 3.6;                         !- X,Y,Z Vertex 4 {m}

FenestrationSurface:Detailed,
  Aperture_5a203440,                      !- Name
  Window,                                 !- Surface Type
  WindowConstruction_1dfe9b5d,            !- Construction Name
  Room_1410_d508b878..Face13,             !- Building Surface Name
  ,                                       !- Outside Boundary Condition Object
  ,                                       !- View Factor to Ground
  ,                                       !- Frame and Divider Name
  ,                                       !- Multiplier
  ,                                       !- Number of Vertices
  54, 14.14, 3.6,                         !- X,Y,Z Vertex 1 {m}
  54, 14.14, 0.1,                         !- X,Y,Z Vertex 2 {m}
  54, 7.46, 0.1,                          !- X,Y,Z Vertex 3 {m}
  54, 7.46, 3.6;                          !- X,Y,Z Vertex 4 {m}

FenestrationSurface:Detailed,
  Aperture_5cd3ac4b,                      !- Name
  Window,                                 !- Surface Type
  WindowConstruction_1dfe9b5d,            !- Construction Name
  Room_1410_d508b878..Face13,             !- Building Surface Name
  ,                                       !- Outside Boundary Condition Object
  ,                                       !- View Factor to Ground
  ,                                       !- Frame and Divider Name
  ,                                       !- Multiplier
  ,                                       !- Number of Vertices
  54, 6.94, 3.6,                          !- X,Y,Z Vertex 1 {m}
  54, 6.94, 0.1,                          !- X,Y,Z Vertex 2 {m}
  54, 0.260000000000004, 0.1,             !- X,Y,Z Vertex 3 {m}
  54, 0.260000000000004, 3.6;             !- X,Y,Z Vertex 4 {m}

FenestrationSurface:Detailed,
  Aperture_844ab205,                      !- Name
  Window,                                 !- Surface Type
  WindowConstruction_1dfe9b5d,            !- Construction Name
  Room_1410_d508b878..Face13,             !- Building Surface Name
  ,                                       !- Outside Boundary Condition Object
  ,                                       !- View Factor to Ground
  ,                                       !- Frame and Divider Name
  ,                                       !- Multiplier
  ,                                       !- Number of Vertices
  54, 21.34, 3.6,                         !- X,Y,Z Vertex 1 {m}
  54, 21.34, 0.1,                         !- X,Y,Z Vertex 2 {m}
  54, 14.66, 0.1,                         !- X,Y,Z Vertex 3 {m}
  54, 14.66, 3.6;                         !- X,Y,Z Vertex 4 {m}

BuildingSurface:Detailed,
  Room_1410_d508b878..Face14,             !- Name
  Wall,                                   !- Surface Type
  OpaqueConstruction_47cf3687,            !- Construction Name
  Room_1410_d508b878,                     !- Zone Name
  Room_1410_d508b878_Space,               !- Space Name
  Outdoors,                               !- Outside Boundary Condition
  ,                                       !- Outside Boundary Condition Object
  SunExposed,                             !- Sun Exposure
  WindExposed,                            !- Wind Exposure
  ,                                       !- View Factor to Ground
  ,                                       !- Number of Vertices
  79.2, -9.06682136777228e-16, 4.5,       !- X,Y,Z Vertex 1 {m}
  79.2, -4.18554080283686e-15, 0,         !- X,Y,Z Vertex 2 {m}
  79.2, 28.8, 0,                          !- X,Y,Z Vertex 3 {m}
  79.2, 28.8, 4.5;                        !- X,Y,Z Vertex 4 {m}

FenestrationSurface:Detailed,
  Aperture_3a67ccbc,                      !- Name
  Window,                                 !- Surface Type
  WindowConstruction_1dfe9b5d,            !- Construction Name
  Room_1410_d508b878..Face14,             !- Building Surface Name
  ,                                       !- Outside Boundary Condition Object
  ,                                       !- View Factor to Ground
  ,                                       !- Frame and Divider Name
  ,                                       !- Multiplier
  ,                                       !- Number of Vertices
  79.2, 0.259999999999993, 3.6,           !- X,Y,Z Vertex 1 {m}
  79.2, 0.259999999999993, 0.1,           !- X,Y,Z Vertex 2 {m}
  79.2, 6.94, 0.1,                        !- X,Y,Z Vertex 3 {m}
  79.2, 6.94, 3.6;                        !- X,Y,Z Vertex 4 {m}

FenestrationSurface:Detailed,
  Aperture_73a14345,                      !- Name
  Window,                                 !- Surface Type
  WindowConstruction_1dfe9b5d,            !- Construction Name
  Room_1410_d508b878..Face14,             !- Building Surface Name
  ,                                       !- Outside Boundary Condition Object
  ,                                       !- View Factor to Ground
  ,                                       !- Frame and Divider Name
  ,                                       !- Multiplier
  ,                                       !- Number of Vertices
  79.2, 14.66, 3.6,                       !- X,Y,Z Vertex 1 {m}
  79.2, 14.66, 0.1,                       !- X,Y,Z Vertex 2 {m}
  79.2, 21.34, 0.1,                       !- X,Y,Z Vertex 3 {m}
  79.2, 21.34, 3.6;                       !- X,Y,Z Vertex 4 {m}

FenestrationSurface:Detailed,
  Aperture_8317ce61,                      !- Name
  Window,                                 !- Surface Type
  WindowConstruction_1dfe9b5d,            !- Construction Name
  Room_1410_d508b878..Face14,             !- Building Surface Name
  ,                                       !- Outside Boundary Condition Object
  ,                                       !- View Factor to Ground
  ,                                       !- Frame and Divider Name
  ,                                       !- Multiplier
  ,                                       !- Number of Vertices
  79.2, 21.86, 3.6,                       !- X,Y,Z Vertex 1 {m}
  79.2, 21.86, 0.1,                       !- X,Y,Z Vertex 2 {m}
  79.2, 28.54, 0.1,                       !- X,Y,Z Vertex 3 {m}
  79.2, 28.54, 3.6;                       !- X,Y,Z Vertex 4 {m}

FenestrationSurface:Detailed,
  Aperture_994bc2a0,                      !- Name
  Window,                                 !- Surface Type
  WindowConstruction_1dfe9b5d,            !- Construction Name
  Room_1410_d508b878..Face14,             !- Building Surface Name
  ,                                       !- Outside Boundary Condition Object
  ,                                       !- View Factor to Ground
  ,                                       !- Frame and Divider Name
  ,                                       !- Multiplier
  ,                                       !- Number of Vertices
  79.2, 7.46, 3.6,                        !- X,Y,Z Vertex 1 {m}
  79.2, 7.46, 0.1,                        !- X,Y,Z Vertex 2 {m}
  79.2, 14.14, 0.1,                       !- X,Y,Z Vertex 3 {m}
  79.2, 14.14, 3.6;                       !- X,Y,Z Vertex 4 {m}

BuildingSurface:Detailed,
  Room_1410_d508b878..Face15,             !- Name
  Wall,                                   !- Surface Type
  OpaqueConstruction_47cf3687,            !- Construction Name
  Room_1410_d508b878,                     !- Zone Name
  Room_1410_d508b878_Space,               !- Space Name
  Outdoors,                               !- Outside Boundary Condition
  ,                                       !- Outside Boundary Condition Object
  SunExposed,                             !- Sun Exposure
  WindExposed,                            !- Wind Exposure
  ,                                       !- View Factor to Ground
  ,                                       !- Number of Vertices
  54, 1.38777878078145e-15, 4.5,          !- X,Y,Z Vertex 1 {m}
  54, 1.38777878078145e-15, 0,            !- X,Y,Z Vertex 2 {m}
  79.2, -4.18554080283686e-15, 0,         !- X,Y,Z Vertex 3 {m}
  79.2, -9.06682136777228e-16, 4.5;       !- X,Y,Z Vertex 4 {m}

FenestrationSurface:Detailed,
  Aperture_2b81cc97,                      !- Name
  Window,                                 !- Surface Type
  WindowConstruction_1dfe9b5d,            !- Construction Name
  Room_1410_d508b878..Face15,             !- Building Surface Name
  ,                                       !- Outside Boundary Condition Object
  ,                                       !- View Factor to Ground
  ,                                       !- Frame and Divider Name
  ,                                       !- Multiplier
  ,                                       !- Number of Vertices
  72.26, -4.21964051002176e-15, 3.6,      !- X,Y,Z Vertex 1 {m}
  72.26, -4.21964051002176e-15, 0.1,      !- X,Y,Z Vertex 2 {m}
  78.94, -7.39805042623435e-15, 0.1,      !- X,Y,Z Vertex 3 {m}
  78.94, -7.39805042623435e-15, 3.6;      !- X,Y,Z Vertex 4 {m}

FenestrationSurface:Detailed,
  Aperture_4f66c14b,                      !- Name
  Window,                                 !- Surface Type
  WindowConstruction_1dfe9b5d,            !- Construction Name
  Room_1410_d508b878..Face15,             !- Building Surface Name
  ,                                       !- Outside Boundary Condition Object
  ,                                       !- View Factor to Ground
  ,                                       !- Frame and Divider Name
  ,                                       !- Multiplier
  ,                                       !- Number of Vertices
  57.86, 2.63202158480778e-15, 3.6,       !- X,Y,Z Vertex 1 {m}
  57.86, 2.63202158480778e-15, 0.1,       !- X,Y,Z Vertex 2 {m}
  64.54, -5.46388331404811e-16, 0.1,      !- X,Y,Z Vertex 3 {m}
  64.54, -5.46388331404811e-16, 3.6;      !- X,Y,Z Vertex 4 {m}

FenestrationSurface:Detailed,
  Aperture_a3ca9724,                      !- Name
  Window,                                 !- Surface Type
  WindowConstruction_1dfe9b5d,            !- Construction Name
  Room_1410_d508b878..Face15,             !- Building Surface Name
  ,                                       !- Outside Boundary Condition Object
  ,                                       !- View Factor to Ground
  ,                                       !- Frame and Divider Name
  ,                                       !- Multiplier
  ,                                       !- Number of Vertices
  54.26, 4.34493710851517e-15, 3.6,       !- X,Y,Z Vertex 1 {m}
  54.26, 4.34493710851517e-15, 0.1,       !- X,Y,Z Vertex 2 {m}
  57.34, 2.87944271600996e-15, 0.1,       !- X,Y,Z Vertex 3 {m}
  57.34, 2.87944271600996e-15, 3.6;       !- X,Y,Z Vertex 4 {m}

FenestrationSurface:Detailed,
  Aperture_e1b459d1,                      !- Name
  Window,                                 !- Surface Type
  WindowConstruction_1dfe9b5d,            !- Construction Name
  Room_1410_d508b878..Face15,             !- Building Surface Name
  ,                                       !- Outside Boundary Condition Object
  ,                                       !- View Factor to Ground
  ,                                       !- Frame and Divider Name
  ,                                       !- Multiplier
  ,                                       !- Number of Vertices
  65.06, -7.93809462606988e-16, 3.6,      !- X,Y,Z Vertex 1 {m}
  65.06, -7.93809462606988e-16, 0.1,      !- X,Y,Z Vertex 2 {m}
  71.74, -3.97221937881958e-15, 0.1,      !- X,Y,Z Vertex 3 {m}
  71.74, -3.97221937881958e-15, 3.6;      !- X,Y,Z Vertex 4 {m}

BuildingSurface:Detailed,
  Room_1410_d508b878..Face16,             !- Name
  Wall,                                   !- Surface Type
  OpaqueConstruction_47cf3687,            !- Construction Name
  Room_1410_d508b878,                     !- Zone Name
  Room_1410_d508b878_Space,               !- Space Name
  Outdoors,                               !- Outside Boundary Condition
  ,                                       !- Outside Boundary Condition Object
  SunExposed,                             !- Sun Exposure
  WindExposed,                            !- Wind Exposure
  ,                                       !- View Factor to Ground
  ,                                       !- Number of Vertices
  86.4, 59.976, 4.5,                      !- X,Y,Z Vertex 1 {m}
  86.4, 59.976, 0,                        !- X,Y,Z Vertex 2 {m}
  64.8, 59.976, 0,                        !- X,Y,Z Vertex 3 {m}
  64.8, 59.976, 4.5;                      !- X,Y,Z Vertex 4 {m}

FenestrationSurface:Detailed,
  Aperture_69305b70,                      !- Name
  Window,                                 !- Surface Type
  WindowConstruction_1dfe9b5d,            !- Construction Name
  Room_1410_d508b878..Face16,             !- Building Surface Name
  ,                                       !- Outside Boundary Condition Object
  ,                                       !- View Factor to Ground
  ,                                       !- Frame and Divider Name
  ,                                       !- Multiplier
  ,                                       !- Number of Vertices
  86.14, 59.976, 3.6,                     !- X,Y,Z Vertex 1 {m}
  86.14, 59.976, 0.1,                     !- X,Y,Z Vertex 2 {m}
  79.46, 59.976, 0.1,                     !- X,Y,Z Vertex 3 {m}
  79.46, 59.976, 3.6;                     !- X,Y,Z Vertex 4 {m}

FenestrationSurface:Detailed,
  Aperture_d897731d,                      !- Name
  Window,                                 !- Surface Type
  WindowConstruction_1dfe9b5d,            !- Construction Name
  Room_1410_d508b878..Face16,             !- Building Surface Name
  ,                                       !- Outside Boundary Condition Object
  ,                                       !- View Factor to Ground
  ,                                       !- Frame and Divider Name
  ,                                       !- Multiplier
  ,                                       !- Number of Vertices
  78.94, 59.976, 3.6,                     !- X,Y,Z Vertex 1 {m}
  78.94, 59.976, 0.1,                     !- X,Y,Z Vertex 2 {m}
  72.26, 59.976, 0.1,                     !- X,Y,Z Vertex 3 {m}
  72.26, 59.976, 3.6;                     !- X,Y,Z Vertex 4 {m}

FenestrationSurface:Detailed,
  Aperture_e48bb9ed,                      !- Name
  Window,                                 !- Surface Type
  WindowConstruction_1dfe9b5d,            !- Construction Name
  Room_1410_d508b878..Face16,             !- Building Surface Name
  ,                                       !- Outside Boundary Condition Object
  ,                                       !- View Factor to Ground
  ,                                       !- Frame and Divider Name
  ,                                       !- Multiplier
  ,                                       !- Number of Vertices
  71.74, 59.976, 3.6,                     !- X,Y,Z Vertex 1 {m}
  71.74, 59.976, 0.1,                     !- X,Y,Z Vertex 2 {m}
  65.06, 59.976, 0.1,                     !- X,Y,Z Vertex 3 {m}
  65.06, 59.976, 3.6;                     !- X,Y,Z Vertex 4 {m}

BuildingSurface:Detailed,
  Room_1410_d508b878..Face17,             !- Name
  Wall,                                   !- Surface Type
  OpaqueConstruction_47cf3687,            !- Construction Name
  Room_1410_d508b878,                     !- Zone Name
  Room_1410_d508b878_Space,               !- Space Name
  Outdoors,                               !- Outside Boundary Condition
  ,                                       !- Outside Boundary Condition Object
  SunExposed,                             !- Sun Exposure
  WindExposed,                            !- Wind Exposure
  ,                                       !- View Factor to Ground
  ,                                       !- Number of Vertices
  86.4, 43.2, 4.5,                        !- X,Y,Z Vertex 1 {m}
  86.4, 43.2, 0,                          !- X,Y,Z Vertex 2 {m}
  86.4, 59.976, 0,                        !- X,Y,Z Vertex 3 {m}
  86.4, 59.976, 4.5;                      !- X,Y,Z Vertex 4 {m}

FenestrationSurface:Detailed,
  Aperture_32859d56,                      !- Name
  Window,                                 !- Surface Type
  WindowConstruction_1dfe9b5d,            !- Construction Name
  Room_1410_d508b878..Face17,             !- Building Surface Name
  ,                                       !- Outside Boundary Condition Object
  ,                                       !- View Factor to Ground
  ,                                       !- Frame and Divider Name
  ,                                       !- Multiplier
  ,                                       !- Number of Vertices
  86.4, 43.46, 3.6,                       !- X,Y,Z Vertex 1 {m}
  86.4, 43.46, 0.1,                       !- X,Y,Z Vertex 2 {m}
  86.4, 50.14, 0.1,                       !- X,Y,Z Vertex 3 {m}
  86.4, 50.14, 3.6;                       !- X,Y,Z Vertex 4 {m}

FenestrationSurface:Detailed,
  Aperture_82abd54e,                      !- Name
  Window,                                 !- Surface Type
  WindowConstruction_1dfe9b5d,            !- Construction Name
  Room_1410_d508b878..Face17,             !- Building Surface Name
  ,                                       !- Outside Boundary Condition Object
  ,                                       !- View Factor to Ground
  ,                                       !- Frame and Divider Name
  ,                                       !- Multiplier
  ,                                       !- Number of Vertices
  86.4, 57.86, 3.6,                       !- X,Y,Z Vertex 1 {m}
  86.4, 57.86, 0.1,                       !- X,Y,Z Vertex 2 {m}
  86.4, 59.716, 0.1,                      !- X,Y,Z Vertex 3 {m}
  86.4, 59.716, 3.6;                      !- X,Y,Z Vertex 4 {m}

FenestrationSurface:Detailed,
  Aperture_e4524d19,                      !- Name
  Window,                                 !- Surface Type
  WindowConstruction_1dfe9b5d,            !- Construction Name
  Room_1410_d508b878..Face17,             !- Building Surface Name
  ,                                       !- Outside Boundary Condition Object
  ,                                       !- View Factor to Ground
  ,                                       !- Frame and Divider Name
  ,                                       !- Multiplier
  ,                                       !- Number of Vertices
  86.4, 50.66, 3.6,                       !- X,Y,Z Vertex 1 {m}
  86.4, 50.66, 0.1,                       !- X,Y,Z Vertex 2 {m}
  86.4, 57.34, 0.1,                       !- X,Y,Z Vertex 3 {m}
  86.4, 57.34, 3.6;                       !- X,Y,Z Vertex 4 {m}

BuildingSurface:Detailed,
  Room_1410_d508b878..Face18,             !- Name
  Wall,                                   !- Surface Type
  OpaqueConstruction_47cf3687,            !- Construction Name
  Room_1410_d508b878,                     !- Zone Name
  Room_1410_d508b878_Space,               !- Space Name
  Surface,                                !- Outside Boundary Condition
  Room_1417_dd7012e5..Face4,              !- Outside Boundary Condition Object
  NoSun,                                  !- Sun Exposure
  NoWind,                                 !- Wind Exposure
  ,                                       !- View Factor to Ground
  ,                                       !- Number of Vertices
  72, 43.2, 4.5,                          !- X,Y,Z Vertex 1 {m}
  72, 43.2, 0,                            !- X,Y,Z Vertex 2 {m}
  86.4, 43.2, 0,                          !- X,Y,Z Vertex 3 {m}
  86.4, 43.2, 4.5;                        !- X,Y,Z Vertex 4 {m}

FenestrationSurface:Detailed,
  Ajd_Aperture_2ed32936,                  !- Name
  Window,                                 !- Surface Type
  WindowConstruction_1dfe9b5d,            !- Construction Name
  Room_1410_d508b878..Face18,             !- Building Surface Name
  Aperture_2ed32936,                      !- Outside Boundary Condition Object
  ,                                       !- View Factor to Ground
  ,                                       !- Frame and Divider Name
  ,                                       !- Multiplier
  ,                                       !- Number of Vertices
  79.3, 43.2, 2.3,                        !- X,Y,Z Vertex 1 {m}
  79.3, 43.2, 0.2,                        !- X,Y,Z Vertex 2 {m}
  80.2, 43.2, 0.2,                        !- X,Y,Z Vertex 3 {m}
  80.2, 43.2, 2.3;                        !- X,Y,Z Vertex 4 {m}

FenestrationSurface:Detailed,
  Ajd_Aperture_80d65499,                  !- Name
  Window,                                 !- Surface Type
  WindowConstruction_1dfe9b5d,            !- Construction Name
  Room_1410_d508b878..Face18,             !- Building Surface Name
  Aperture_80d65499,                      !- Outside Boundary Condition Object
  ,                                       !- View Factor to Ground
  ,                                       !- Frame and Divider Name
  ,                                       !- Multiplier
  ,                                       !- Number of Vertices
  78.3, 43.2, 2.3,                        !- X,Y,Z Vertex 1 {m}
  78.3, 43.2, 0.2,                        !- X,Y,Z Vertex 2 {m}
  79.1, 43.2, 0.2,                        !- X,Y,Z Vertex 3 {m}
  79.1, 43.2, 2.3;                        !- X,Y,Z Vertex 4 {m}

FenestrationSurface:Detailed,
  Ajd_Aperture_867a1a32,                  !- Name
  Window,                                 !- Surface Type
  WindowConstruction_1dfe9b5d,            !- Construction Name
  Room_1410_d508b878..Face18,             !- Building Surface Name
  Aperture_867a1a32,                      !- Outside Boundary Condition Object
  ,                                       !- View Factor to Ground
  ,                                       !- Frame and Divider Name
  ,                                       !- Multiplier
  ,                                       !- Number of Vertices
  85.5, 43.2, 2.3,                        !- X,Y,Z Vertex 1 {m}
  85.5, 43.2, 0.2,                        !- X,Y,Z Vertex 2 {m}
  86.3, 43.2, 0.2,                        !- X,Y,Z Vertex 3 {m}
  86.3, 43.2, 2.3;                        !- X,Y,Z Vertex 4 {m}

FenestrationSurface:Detailed,
  Ajd_Aperture_e776746b,                  !- Name
  Window,                                 !- Surface Type
  WindowConstruction_1dfe9b5d,            !- Construction Name
  Room_1410_d508b878..Face18,             !- Building Surface Name
  Aperture_e776746b,                      !- Outside Boundary Condition Object
  ,                                       !- View Factor to Ground
  ,                                       !- Frame and Divider Name
  ,                                       !- Multiplier
  ,                                       !- Number of Vertices
  72.1, 43.2, 2.3,                        !- X,Y,Z Vertex 1 {m}
  72.1, 43.2, 0.2,                        !- X,Y,Z Vertex 2 {m}
  73, 43.2, 0.2,                          !- X,Y,Z Vertex 3 {m}
  73, 43.2, 2.3;                          !- X,Y,Z Vertex 4 {m}

BuildingSurface:Detailed,
  Room_1410_d508b878..Face19,             !- Name
  Wall,                                   !- Surface Type
  OpaqueConstruction_47cf3687,            !- Construction Name
  Room_1410_d508b878,                     !- Zone Name
  Room_1410_d508b878_Space,               !- Space Name
  Surface,                                !- Outside Boundary Condition
  Room_1417_dd7012e5..Face5,              !- Outside Boundary Condition Object
  NoSun,                                  !- Sun Exposure
  NoWind,                                 !- Wind Exposure
  ,                                       !- View Factor to Ground
  ,                                       !- Number of Vertices
  72, 28.8, 4.5,                          !- X,Y,Z Vertex 1 {m}
  72, 28.8, 0,                            !- X,Y,Z Vertex 2 {m}
  72, 43.2, 0,                            !- X,Y,Z Vertex 3 {m}
  72, 43.2, 4.5;                          !- X,Y,Z Vertex 4 {m}

FenestrationSurface:Detailed,
  Ajd_Aperture_80c5a8fc,                  !- Name
  Window,                                 !- Surface Type
  WindowConstruction_1dfe9b5d,            !- Construction Name
  Room_1410_d508b878..Face19,             !- Building Surface Name
  Aperture_80c5a8fc,                      !- Outside Boundary Condition Object
  ,                                       !- View Factor to Ground
  ,                                       !- Frame and Divider Name
  ,                                       !- Multiplier
  ,                                       !- Number of Vertices
  72, 36.1, 2.3,                          !- X,Y,Z Vertex 1 {m}
  72, 36.1, 0.2,                          !- X,Y,Z Vertex 2 {m}
  72, 36.9, 0.2,                          !- X,Y,Z Vertex 3 {m}
  72, 36.9, 2.3;                          !- X,Y,Z Vertex 4 {m}

FenestrationSurface:Detailed,
  Ajd_Aperture_de19cdf3,                  !- Name
  Window,                                 !- Surface Type
  WindowConstruction_1dfe9b5d,            !- Construction Name
  Room_1410_d508b878..Face19,             !- Building Surface Name
  Aperture_de19cdf3,                      !- Outside Boundary Condition Object
  ,                                       !- View Factor to Ground
  ,                                       !- Frame and Divider Name
  ,                                       !- Multiplier
  ,                                       !- Number of Vertices
  72, 42.2, 2.3,                          !- X,Y,Z Vertex 1 {m}
  72, 42.2, 0.2,                          !- X,Y,Z Vertex 2 {m}
  72, 43.1, 0.2,                          !- X,Y,Z Vertex 3 {m}
  72, 43.1, 2.3;                          !- X,Y,Z Vertex 4 {m}

FenestrationSurface:Detailed,
  Ajd_Aperture_e57d7eed,                  !- Name
  Window,                                 !- Surface Type
  WindowConstruction_1dfe9b5d,            !- Construction Name
  Room_1410_d508b878..Face19,             !- Building Surface Name
  Aperture_e57d7eed,                      !- Outside Boundary Condition Object
  ,                                       !- View Factor to Ground
  ,                                       !- Frame and Divider Name
  ,                                       !- Multiplier
  ,                                       !- Number of Vertices
  72, 35, 2.3,                            !- X,Y,Z Vertex 1 {m}
  72, 35, 0.2,                            !- X,Y,Z Vertex 2 {m}
  72, 35.9, 0.2,                          !- X,Y,Z Vertex 3 {m}
  72, 35.9, 2.3;                          !- X,Y,Z Vertex 4 {m}

FenestrationSurface:Detailed,
  Ajd_Aperture_e8195b78,                  !- Name
  Window,                                 !- Surface Type
  WindowConstruction_1dfe9b5d,            !- Construction Name
  Room_1410_d508b878..Face19,             !- Building Surface Name
  Aperture_e8195b78,                      !- Outside Boundary Condition Object
  ,                                       !- View Factor to Ground
  ,                                       !- Frame and Divider Name
  ,                                       !- Multiplier
  ,                                       !- Number of Vertices
  72, 28.9, 2.3,                          !- X,Y,Z Vertex 1 {m}
  72, 28.9, 0.2,                          !- X,Y,Z Vertex 2 {m}
  72, 29.7, 0.2,                          !- X,Y,Z Vertex 3 {m}
  72, 29.7, 2.3;                          !- X,Y,Z Vertex 4 {m}

BuildingSurface:Detailed,
  Room_1410_d508b878..Face2,              !- Name
  Floor,                                  !- Surface Type
  OpaqueConstruction_47cf3687,            !- Construction Name
  Room_1410_d508b878,                     !- Zone Name
  Room_1410_d508b878_Space,               !- Space Name
  Ground,                                 !- Outside Boundary Condition
  ,                                       !- Outside Boundary Condition Object
  NoSun,                                  !- Sun Exposure
  NoWind,                                 !- Wind Exposure
  ,                                       !- View Factor to Ground
  ,                                       !- Number of Vertices
  79.2, 59.976, 0,                        !- X,Y,Z Vertex 1 {m}
  79.2, 43.2, 0,                          !- X,Y,Z Vertex 2 {m}
  72, 43.2, 0,                            !- X,Y,Z Vertex 3 {m}
  72, 59.976, 0;                          !- X,Y,Z Vertex 4 {m}

BuildingSurface:Detailed,
  Room_1410_d508b878..Face20,             !- Name
  Wall,                                   !- Surface Type
  OpaqueConstruction_47cf3687,            !- Construction Name
  Room_1410_d508b878,                     !- Zone Name
  Room_1410_d508b878_Space,               !- Space Name
  Outdoors,                               !- Outside Boundary Condition
  ,                                       !- Outside Boundary Condition Object
  SunExposed,                             !- Sun Exposure
  WindExposed,                            !- Wind Exposure
  ,                                       !- View Factor to Ground
  ,                                       !- Number of Vertices
  64.8, 28.8, 4.5,                        !- X,Y,Z Vertex 1 {m}
  64.8, 28.8, 0,                          !- X,Y,Z Vertex 2 {m}
  54, 28.8, 0,                            !- X,Y,Z Vertex 3 {m}
  54, 28.8, 4.5;                          !- X,Y,Z Vertex 4 {m}

FenestrationSurface:Detailed,
  Aperture_37e595a5,                      !- Name
  Window,                                 !- Surface Type
  WindowConstruction_1dfe9b5d,            !- Construction Name
  Room_1410_d508b878..Face20,             !- Building Surface Name
  ,                                       !- Outside Boundary Condition Object
  ,                                       !- View Factor to Ground
  ,                                       !- Frame and Divider Name
  ,                                       !- Multiplier
  ,                                       !- Number of Vertices
  57.34, 28.8, 3.6,                       !- X,Y,Z Vertex 1 {m}
  57.34, 28.8, 0.1,                       !- X,Y,Z Vertex 2 {m}
  54.26, 28.8, 0.1,                       !- X,Y,Z Vertex 3 {m}
  54.26, 28.8, 3.6;                       !- X,Y,Z Vertex 4 {m}

FenestrationSurface:Detailed,
  Aperture_6d257e38,                      !- Name
  Window,                                 !- Surface Type
  WindowConstruction_1dfe9b5d,            !- Construction Name
  Room_1410_d508b878..Face20,             !- Building Surface Name
  ,                                       !- Outside Boundary Condition Object
  ,                                       !- View Factor to Ground
  ,                                       !- Frame and Divider Name
  ,                                       !- Multiplier
  ,                                       !- Number of Vertices
  64.54, 28.8, 3.6,                       !- X,Y,Z Vertex 1 {m}
  64.54, 28.8, 0.1,                       !- X,Y,Z Vertex 2 {m}
  57.86, 28.8, 0.1,                       !- X,Y,Z Vertex 3 {m}
  57.86, 28.8, 3.6;                       !- X,Y,Z Vertex 4 {m}

BuildingSurface:Detailed,
  Room_1410_d508b878..Face21,             !- Name
  Wall,                                   !- Surface Type
  OpaqueConstruction_47cf3687,            !- Construction Name
  Room_1410_d508b878,                     !- Zone Name
  Room_1410_d508b878_Space,               !- Space Name
  Surface,                                !- Outside Boundary Condition
  Room_1417_dd7012e5..Face7,              !- Outside Boundary Condition Object
  NoSun,                                  !- Sun Exposure
  NoWind,                                 !- Wind Exposure
  ,                                       !- View Factor to Ground
  ,                                       !- Number of Vertices
  79.2, 28.8, 4.5,                        !- X,Y,Z Vertex 1 {m}
  79.2, 28.8, 0,                          !- X,Y,Z Vertex 2 {m}
  72, 28.8, 0,                            !- X,Y,Z Vertex 3 {m}
  72, 28.8, 4.5;                          !- X,Y,Z Vertex 4 {m}

FenestrationSurface:Detailed,
  Ajd_Aperture_70d8a017,                  !- Name
  Window,                                 !- Surface Type
  WindowConstruction_1dfe9b5d,            !- Construction Name
  Room_1410_d508b878..Face21,             !- Building Surface Name
  Aperture_70d8a017,                      !- Outside Boundary Condition Object
  ,                                       !- View Factor to Ground
  ,                                       !- Frame and Divider Name
  ,                                       !- Multiplier
  ,                                       !- Number of Vertices
  79.1, 28.8, 2.3,                        !- X,Y,Z Vertex 1 {m}
  79.1, 28.8, 0.2,                        !- X,Y,Z Vertex 2 {m}
  78.3, 28.8, 0.2,                        !- X,Y,Z Vertex 3 {m}
  78.3, 28.8, 2.3;                        !- X,Y,Z Vertex 4 {m}

FenestrationSurface:Detailed,
  Ajd_Aperture_ac685066,                  !- Name
  Window,                                 !- Surface Type
  WindowConstruction_1dfe9b5d,            !- Construction Name
  Room_1410_d508b878..Face21,             !- Building Surface Name
  Aperture_ac685066,                      !- Outside Boundary Condition Object
  ,                                       !- View Factor to Ground
  ,                                       !- Frame and Divider Name
  ,                                       !- Multiplier
  ,                                       !- Number of Vertices
  73, 28.8, 2.3,                          !- X,Y,Z Vertex 1 {m}
  73, 28.8, 0.2,                          !- X,Y,Z Vertex 2 {m}
  72.1, 28.8, 0.2,                        !- X,Y,Z Vertex 3 {m}
  72.1, 28.8, 2.3;                        !- X,Y,Z Vertex 4 {m}

BuildingSurface:Detailed,
  Room_1410_d508b878..Face3,              !- Name
  Floor,                                  !- Surface Type
  OpaqueConstruction_47cf3687,            !- Construction Name
  Room_1410_d508b878,                     !- Zone Name
  Room_1410_d508b878_Space,               !- Space Name
  Ground,                                 !- Outside Boundary Condition
  ,                                       !- Outside Boundary Condition Object
  NoSun,                                  !- Sun Exposure
  NoWind,                                 !- Wind Exposure
  ,                                       !- View Factor to Ground
  ,                                       !- Number of Vertices
  72, 43.2, 0,                            !- X,Y,Z Vertex 1 {m}
  72, 28.8, 0,                            !- X,Y,Z Vertex 2 {m}
  64.8, 28.8, 0,                          !- X,Y,Z Vertex 3 {m}
  64.8, 43.2, 0;                          !- X,Y,Z Vertex 4 {m}

BuildingSurface:Detailed,
  Room_1410_d508b878..Face4,              !- Name
  Floor,                                  !- Surface Type
  OpaqueConstruction_47cf3687,            !- Construction Name
  Room_1410_d508b878,                     !- Zone Name
  Room_1410_d508b878_Space,               !- Space Name
  Ground,                                 !- Outside Boundary Condition
  ,                                       !- Outside Boundary Condition Object
  NoSun,                                  !- Sun Exposure
  NoWind,                                 !- Wind Exposure
  ,                                       !- View Factor to Ground
  ,                                       !- Number of Vertices
  72, 59.976, 0,                          !- X,Y,Z Vertex 1 {m}
  72, 43.2, 0,                            !- X,Y,Z Vertex 2 {m}
  64.8, 43.2, 0,                          !- X,Y,Z Vertex 3 {m}
  64.8, 59.976, 0;                        !- X,Y,Z Vertex 4 {m}

BuildingSurface:Detailed,
  Room_1410_d508b878..Face5,              !- Name
  Floor,                                  !- Surface Type
  OpaqueConstruction_47cf3687,            !- Construction Name
  Room_1410_d508b878,                     !- Zone Name
  Room_1410_d508b878_Space,               !- Space Name
  Ground,                                 !- Outside Boundary Condition
  ,                                       !- Outside Boundary Condition Object
  NoSun,                                  !- Sun Exposure
  NoWind,                                 !- Wind Exposure
  ,                                       !- View Factor to Ground
  ,                                       !- Number of Vertices
  79.2, 28.8, 0,                          !- X,Y,Z Vertex 1 {m}
  79.2, -4.18554080283686e-15, 0,         !- X,Y,Z Vertex 2 {m}
  64.8, 8.5265128291212e-14, 0,           !- X,Y,Z Vertex 3 {m}
  64.8, 28.8, 0;                          !- X,Y,Z Vertex 4 {m}

BuildingSurface:Detailed,
  Room_1410_d508b878..Face6,              !- Name
  Ceiling,                                !- Surface Type
  OpaqueConstruction_47cf3687,            !- Construction Name
  Room_1410_d508b878,                     !- Zone Name
  Room_1410_d508b878_Space,               !- Space Name
  Surface,                                !- Outside Boundary Condition
  Room_1412_6e864ed8..Face0,              !- Outside Boundary Condition Object
  NoSun,                                  !- Sun Exposure
  NoWind,                                 !- Wind Exposure
  ,                                       !- View Factor to Ground
  ,                                       !- Number of Vertices
  54, 28.8, 4.5,                          !- X,Y,Z Vertex 1 {m}
  54, 1.38777878078145e-15, 4.5,          !- X,Y,Z Vertex 2 {m}
  64.8, 7.105427357601e-14, 4.5,          !- X,Y,Z Vertex 3 {m}
  64.8, 28.8, 4.5;                        !- X,Y,Z Vertex 4 {m}

BuildingSurface:Detailed,
  Room_1410_d508b878..Face7,              !- Name
  Ceiling,                                !- Surface Type
  OpaqueConstruction_47cf3687,            !- Construction Name
  Room_1410_d508b878,                     !- Zone Name
  Room_1410_d508b878_Space,               !- Space Name
  Surface,                                !- Outside Boundary Condition
  Room_1412_6e864ed8..Face1,              !- Outside Boundary Condition Object
  NoSun,                                  !- Sun Exposure
  NoWind,                                 !- Wind Exposure
  ,                                       !- View Factor to Ground
  ,                                       !- Number of Vertices
  79.2, 59.976, 4.5,                      !- X,Y,Z Vertex 1 {m}
  79.2, 43.2, 4.5,                        !- X,Y,Z Vertex 2 {m}
  86.4, 43.2, 4.5,                        !- X,Y,Z Vertex 3 {m}
  86.4, 59.976, 4.5;                      !- X,Y,Z Vertex 4 {m}

BuildingSurface:Detailed,
  Room_1410_d508b878..Face8,              !- Name
  Ceiling,                                !- Surface Type
  OpaqueConstruction_47cf3687,            !- Construction Name
  Room_1410_d508b878,                     !- Zone Name
  Room_1410_d508b878_Space,               !- Space Name
  Surface,                                !- Outside Boundary Condition
  Room_1412_6e864ed8..Face2,              !- Outside Boundary Condition Object
  NoSun,                                  !- Sun Exposure
  NoWind,                                 !- Wind Exposure
  ,                                       !- View Factor to Ground
  ,                                       !- Number of Vertices
  72, 59.976, 4.5,                        !- X,Y,Z Vertex 1 {m}
  72, 43.2, 4.5,                          !- X,Y,Z Vertex 2 {m}
  79.2, 43.2, 4.5,                        !- X,Y,Z Vertex 3 {m}
  79.2, 59.976, 4.5;                      !- X,Y,Z Vertex 4 {m}

BuildingSurface:Detailed,
  Room_1410_d508b878..Face9,              !- Name
  Ceiling,                                !- Surface Type
  OpaqueConstruction_47cf3687,            !- Construction Name
  Room_1410_d508b878,                     !- Zone Name
  Room_1410_d508b878_Space,               !- Space Name
  Surface,                                !- Outside Boundary Condition
  Room_1412_6e864ed8..Face3,              !- Outside Boundary Condition Object
  NoSun,                                  !- Sun Exposure
  NoWind,                                 !- Wind Exposure
  ,                                       !- View Factor to Ground
  ,                                       !- Number of Vertices
  64.8, 43.2, 4.5,                        !- X,Y,Z Vertex 1 {m}
  64.8, 28.8, 4.5,                        !- X,Y,Z Vertex 2 {m}
  72, 28.8, 4.5,                          !- X,Y,Z Vertex 3 {m}
  72, 43.2, 4.5;                          !- X,Y,Z Vertex 4 {m}

ZoneControl:Thermostat,
  Room_1410_d508b878 Thermostat,          !- Name
  Room_1410_d508b878,                     !- Zone or ZoneList Name
  Room_1410_d508b878 Thermostat Schedule, !- Control Type Schedule Name
  ThermostatSetpoint:DualSetpoint,        !- Control 1 Object Type
  Setpoint_2eba0a66 1,                    !- Control 1 Name
  ,                                       !- Control 2 Object Type
  ,                                       !- Control 2 Name
  ,                                       !- Control 3 Object Type
  ,                                       !- Control 3 Name
  ,                                       !- Control 4 Object Type
  ,                                       !- Control 4 Name
  0;                                      !- Temperature Difference Between Cutout And Setpoint {deltaC}

Schedule:Compact,
  Room_1410_d508b878 Thermostat Schedule, !- Name
  Room_1410_d508b878 Thermostat Schedule Type Limits, !- Schedule Type Limits Name
  Through: 12/31,                         !- Field 1
  For: AllDays,                           !- Field 2
  Until: 24:00,                           !- Field 3
  4;                                      !- Field 4

ScheduleTypeLimits,
  Room_1410_d508b878 Thermostat Schedule Type Limits, !- Name
  0,                                      !- Lower Limit Value {BasedOnField A3}
  4,                                      !- Upper Limit Value {BasedOnField A3}
  DISCRETE;                               !- Numeric Type

ThermostatSetpoint:DualSetpoint,
  Setpoint_2eba0a66 1,                    !- Name
  ConstantSchedule_3ec00e82,              !- Heating Setpoint Temperature Schedule Name
  ConstantSchedule_b6307482;              !- Cooling Setpoint Temperature Schedule Name

ZoneVentilation:WindandStackOpenArea,
  Aperture_ebf03637_Opening,              !- Name
  Room_1410_d508b878,                     !- Zone or Space Name
  11.69,                                  !- Opening Area {m2}
  Always On Discrete,                     !- Opening Area Fraction Schedule Name
  Autocalculate,                          !- Opening Effectiveness {dimensionless}
  270,                                    !- Effective Angle {deg}
  0.875,                                  !- Height Difference {m}
  0.45,                                   !- Discharge Coefficient for Opening
  -100,                                   !- Minimum Indoor Temperature {C}
  ,                                       !- Minimum Indoor Temperature Schedule Name
  100,                                    !- Maximum Indoor Temperature {C}
  ,                                       !- Maximum Indoor Temperature Schedule Name
  -100,                                   !- Delta Temperature {deltaC}
  ,                                       !- Delta Temperature Schedule Name
  22,                                     !- Minimum Outdoor Temperature {C}
  ,                                       !- Minimum Outdoor Temperature Schedule Name
  26,                                     !- Maximum Outdoor Temperature {C}
  ,                                       !- Maximum Outdoor Temperature Schedule Name
  40;                                     !- Maximum Wind Speed {m/s}

ZoneVentilation:WindandStackOpenArea,
  Aperture_7418708d_Opening,              !- Name
  Room_1410_d508b878,                     !- Zone or Space Name
  11.69,                                  !- Opening Area {m2}
  Always On Discrete,                     !- Opening Area Fraction Schedule Name
  Autocalculate,                          !- Opening Effectiveness {dimensionless}
  270,                                    !- Effective Angle {deg}
  0.875,                                  !- Height Difference {m}
  0.45,                                   !- Discharge Coefficient for Opening
  -100,                                   !- Minimum Indoor Temperature {C}
  ,                                       !- Minimum Indoor Temperature Schedule Name
  100,                                    !- Maximum Indoor Temperature {C}
  ,                                       !- Maximum Indoor Temperature Schedule Name
  -100,                                   !- Delta Temperature {deltaC}
  ,                                       !- Delta Temperature Schedule Name
  22,                                     !- Minimum Outdoor Temperature {C}
  ,                                       !- Minimum Outdoor Temperature Schedule Name
  26,                                     !- Maximum Outdoor Temperature {C}
  ,                                       !- Maximum Outdoor Temperature Schedule Name
  40;                                     !- Maximum Wind Speed {m/s}

ZoneVentilation:WindandStackOpenArea,
  Aperture_1149f172_Opening,              !- Name
  Room_1410_d508b878,                     !- Zone or Space Name
  11.69,                                  !- Opening Area {m2}
  Always On Discrete,                     !- Opening Area Fraction Schedule Name
  Autocalculate,                          !- Opening Effectiveness {dimensionless}
  270,                                    !- Effective Angle {deg}
  0.875,                                  !- Height Difference {m}
  0.45,                                   !- Discharge Coefficient for Opening
  -100,                                   !- Minimum Indoor Temperature {C}
  ,                                       !- Minimum Indoor Temperature Schedule Name
  100,                                    !- Maximum Indoor Temperature {C}
  ,                                       !- Maximum Indoor Temperature Schedule Name
  -100,                                   !- Delta Temperature {deltaC}
  ,                                       !- Delta Temperature Schedule Name
  22,                                     !- Minimum Outdoor Temperature {C}
  ,                                       !- Minimum Outdoor Temperature Schedule Name
  26,                                     !- Maximum Outdoor Temperature {C}
  ,                                       !- Maximum Outdoor Temperature Schedule Name
  40;                                     !- Maximum Wind Speed {m/s}

ZoneVentilation:WindandStackOpenArea,
  Aperture_3d51005e_Opening,              !- Name
  Room_1410_d508b878,                     !- Zone or Space Name
  11.69,                                  !- Opening Area {m2}
  Always On Discrete,                     !- Opening Area Fraction Schedule Name
  Autocalculate,                          !- Opening Effectiveness {dimensionless}
  270,                                    !- Effective Angle {deg}
  0.875,                                  !- Height Difference {m}
  0.45,                                   !- Discharge Coefficient for Opening
  -100,                                   !- Minimum Indoor Temperature {C}
  ,                                       !- Minimum Indoor Temperature Schedule Name
  100,                                    !- Maximum Indoor Temperature {C}
  ,                                       !- Maximum Indoor Temperature Schedule Name
  -100,                                   !- Delta Temperature {deltaC}
  ,                                       !- Delta Temperature Schedule Name
  22,                                     !- Minimum Outdoor Temperature {C}
  ,                                       !- Minimum Outdoor Temperature Schedule Name
  26,                                     !- Maximum Outdoor Temperature {C}
  ,                                       !- Maximum Outdoor Temperature Schedule Name
  40;                                     !- Maximum Wind Speed {m/s}

ZoneVentilation:WindandStackOpenArea,
  Aperture_1d73e1c9_Opening,              !- Name
  Room_1410_d508b878,                     !- Zone or Space Name
  3.248,                                  !- Opening Area {m2}
  Always On Discrete,                     !- Opening Area Fraction Schedule Name
  Autocalculate,                          !- Opening Effectiveness {dimensionless}
  270,                                    !- Effective Angle {deg}
  0.875,                                  !- Height Difference {m}
  0.45,                                   !- Discharge Coefficient for Opening
  -100,                                   !- Minimum Indoor Temperature {C}
  ,                                       !- Minimum Indoor Temperature Schedule Name
  100,                                    !- Maximum Indoor Temperature {C}
  ,                                       !- Maximum Indoor Temperature Schedule Name
  -100,                                   !- Delta Temperature {deltaC}
  ,                                       !- Delta Temperature Schedule Name
  22,                                     !- Minimum Outdoor Temperature {C}
  ,                                       !- Minimum Outdoor Temperature Schedule Name
  26,                                     !- Maximum Outdoor Temperature {C}
  ,                                       !- Maximum Outdoor Temperature Schedule Name
  40;                                     !- Maximum Wind Speed {m/s}

ZoneVentilation:WindandStackOpenArea,
  Aperture_5cd3ac4b_Opening,              !- Name
  Room_1410_d508b878,                     !- Zone or Space Name
  11.69,                                  !- Opening Area {m2}
  Always On Discrete,                     !- Opening Area Fraction Schedule Name
  Autocalculate,                          !- Opening Effectiveness {dimensionless}
  270,                                    !- Effective Angle {deg}
  0.875,                                  !- Height Difference {m}
  0.45,                                   !- Discharge Coefficient for Opening
  -100,                                   !- Minimum Indoor Temperature {C}
  ,                                       !- Minimum Indoor Temperature Schedule Name
  100,                                    !- Maximum Indoor Temperature {C}
  ,                                       !- Maximum Indoor Temperature Schedule Name
  -100,                                   !- Delta Temperature {deltaC}
  ,                                       !- Delta Temperature Schedule Name
  22,                                     !- Minimum Outdoor Temperature {C}
  ,                                       !- Minimum Outdoor Temperature Schedule Name
  26,                                     !- Maximum Outdoor Temperature {C}
  ,                                       !- Maximum Outdoor Temperature Schedule Name
  40;                                     !- Maximum Wind Speed {m/s}

ZoneVentilation:WindandStackOpenArea,
  Aperture_5a203440_Opening,              !- Name
  Room_1410_d508b878,                     !- Zone or Space Name
  11.69,                                  !- Opening Area {m2}
  Always On Discrete,                     !- Opening Area Fraction Schedule Name
  Autocalculate,                          !- Opening Effectiveness {dimensionless}
  270,                                    !- Effective Angle {deg}
  0.875,                                  !- Height Difference {m}
  0.45,                                   !- Discharge Coefficient for Opening
  -100,                                   !- Minimum Indoor Temperature {C}
  ,                                       !- Minimum Indoor Temperature Schedule Name
  100,                                    !- Maximum Indoor Temperature {C}
  ,                                       !- Maximum Indoor Temperature Schedule Name
  -100,                                   !- Delta Temperature {deltaC}
  ,                                       !- Delta Temperature Schedule Name
  22,                                     !- Minimum Outdoor Temperature {C}
  ,                                       !- Minimum Outdoor Temperature Schedule Name
  26,                                     !- Maximum Outdoor Temperature {C}
  ,                                       !- Maximum Outdoor Temperature Schedule Name
  40;                                     !- Maximum Wind Speed {m/s}

ZoneVentilation:WindandStackOpenArea,
  Aperture_844ab205_Opening,              !- Name
  Room_1410_d508b878,                     !- Zone or Space Name
  11.69,                                  !- Opening Area {m2}
  Always On Discrete,                     !- Opening Area Fraction Schedule Name
  Autocalculate,                          !- Opening Effectiveness {dimensionless}
  270,                                    !- Effective Angle {deg}
  0.875,                                  !- Height Difference {m}
  0.45,                                   !- Discharge Coefficient for Opening
  -100,                                   !- Minimum Indoor Temperature {C}
  ,                                       !- Minimum Indoor Temperature Schedule Name
  100,                                    !- Maximum Indoor Temperature {C}
  ,                                       !- Maximum Indoor Temperature Schedule Name
  -100,                                   !- Delta Temperature {deltaC}
  ,                                       !- Delta Temperature Schedule Name
  22,                                     !- Minimum Outdoor Temperature {C}
  ,                                       !- Minimum Outdoor Temperature Schedule Name
  26,                                     !- Maximum Outdoor Temperature {C}
  ,                                       !- Maximum Outdoor Temperature Schedule Name
  40;                                     !- Maximum Wind Speed {m/s}

ZoneVentilation:WindandStackOpenArea,
  Aperture_23a97e37_Opening,              !- Name
  Room_1410_d508b878,                     !- Zone or Space Name
  11.69,                                  !- Opening Area {m2}
  Always On Discrete,                     !- Opening Area Fraction Schedule Name
  Autocalculate,                          !- Opening Effectiveness {dimensionless}
  270,                                    !- Effective Angle {deg}
  0.875,                                  !- Height Difference {m}
  0.45,                                   !- Discharge Coefficient for Opening
  -100,                                   !- Minimum Indoor Temperature {C}
  ,                                       !- Minimum Indoor Temperature Schedule Name
  100,                                    !- Maximum Indoor Temperature {C}
  ,                                       !- Maximum Indoor Temperature Schedule Name
  -100,                                   !- Delta Temperature {deltaC}
  ,                                       !- Delta Temperature Schedule Name
  22,                                     !- Minimum Outdoor Temperature {C}
  ,                                       !- Minimum Outdoor Temperature Schedule Name
  26,                                     !- Maximum Outdoor Temperature {C}
  ,                                       !- Maximum Outdoor Temperature Schedule Name
  40;                                     !- Maximum Wind Speed {m/s}

ZoneVentilation:WindandStackOpenArea,
  Aperture_3a67ccbc_Opening,              !- Name
  Room_1410_d508b878,                     !- Zone or Space Name
  11.69,                                  !- Opening Area {m2}
  Always On Discrete,                     !- Opening Area Fraction Schedule Name
  Autocalculate,                          !- Opening Effectiveness {dimensionless}
  90,                                     !- Effective Angle {deg}
  0.875,                                  !- Height Difference {m}
  0.45,                                   !- Discharge Coefficient for Opening
  -100,                                   !- Minimum Indoor Temperature {C}
  ,                                       !- Minimum Indoor Temperature Schedule Name
  100,                                    !- Maximum Indoor Temperature {C}
  ,                                       !- Maximum Indoor Temperature Schedule Name
  -100,                                   !- Delta Temperature {deltaC}
  ,                                       !- Delta Temperature Schedule Name
  22,                                     !- Minimum Outdoor Temperature {C}
  ,                                       !- Minimum Outdoor Temperature Schedule Name
  26,                                     !- Maximum Outdoor Temperature {C}
  ,                                       !- Maximum Outdoor Temperature Schedule Name
  40;                                     !- Maximum Wind Speed {m/s}

ZoneVentilation:WindandStackOpenArea,
  Aperture_994bc2a0_Opening,              !- Name
  Room_1410_d508b878,                     !- Zone or Space Name
  11.69,                                  !- Opening Area {m2}
  Always On Discrete,                     !- Opening Area Fraction Schedule Name
  Autocalculate,                          !- Opening Effectiveness {dimensionless}
  90,                                     !- Effective Angle {deg}
  0.875,                                  !- Height Difference {m}
  0.45,                                   !- Discharge Coefficient for Opening
  -100,                                   !- Minimum Indoor Temperature {C}
  ,                                       !- Minimum Indoor Temperature Schedule Name
  100,                                    !- Maximum Indoor Temperature {C}
  ,                                       !- Maximum Indoor Temperature Schedule Name
  -100,                                   !- Delta Temperature {deltaC}
  ,                                       !- Delta Temperature Schedule Name
  22,                                     !- Minimum Outdoor Temperature {C}
  ,                                       !- Minimum Outdoor Temperature Schedule Name
  26,                                     !- Maximum Outdoor Temperature {C}
  ,                                       !- Maximum Outdoor Temperature Schedule Name
  40;                                     !- Maximum Wind Speed {m/s}

ZoneVentilation:WindandStackOpenArea,
  Aperture_73a14345_Opening,              !- Name
  Room_1410_d508b878,                     !- Zone or Space Name
  11.69,                                  !- Opening Area {m2}
  Always On Discrete,                     !- Opening Area Fraction Schedule Name
  Autocalculate,                          !- Opening Effectiveness {dimensionless}
  90,                                     !- Effective Angle {deg}
  0.875,                                  !- Height Difference {m}
  0.45,                                   !- Discharge Coefficient for Opening
  -100,                                   !- Minimum Indoor Temperature {C}
  ,                                       !- Minimum Indoor Temperature Schedule Name
  100,                                    !- Maximum Indoor Temperature {C}
  ,                                       !- Maximum Indoor Temperature Schedule Name
  -100,                                   !- Delta Temperature {deltaC}
  ,                                       !- Delta Temperature Schedule Name
  22,                                     !- Minimum Outdoor Temperature {C}
  ,                                       !- Minimum Outdoor Temperature Schedule Name
  26,                                     !- Maximum Outdoor Temperature {C}
  ,                                       !- Maximum Outdoor Temperature Schedule Name
  40;                                     !- Maximum Wind Speed {m/s}

ZoneVentilation:WindandStackOpenArea,
  Aperture_8317ce61_Opening,              !- Name
  Room_1410_d508b878,                     !- Zone or Space Name
  11.69,                                  !- Opening Area {m2}
  Always On Discrete,                     !- Opening Area Fraction Schedule Name
  Autocalculate,                          !- Opening Effectiveness {dimensionless}
  90,                                     !- Effective Angle {deg}
  0.875,                                  !- Height Difference {m}
  0.45,                                   !- Discharge Coefficient for Opening
  -100,                                   !- Minimum Indoor Temperature {C}
  ,                                       !- Minimum Indoor Temperature Schedule Name
  100,                                    !- Maximum Indoor Temperature {C}
  ,                                       !- Maximum Indoor Temperature Schedule Name
  -100,                                   !- Delta Temperature {deltaC}
  ,                                       !- Delta Temperature Schedule Name
  22,                                     !- Minimum Outdoor Temperature {C}
  ,                                       !- Minimum Outdoor Temperature Schedule Name
  26,                                     !- Maximum Outdoor Temperature {C}
  ,                                       !- Maximum Outdoor Temperature Schedule Name
  40;                                     !- Maximum Wind Speed {m/s}

ZoneVentilation:WindandStackOpenArea,
  Aperture_a3ca9724_Opening,              !- Name
  Room_1410_d508b878,                     !- Zone or Space Name
  5.39000000000001,                       !- Opening Area {m2}
  Always On Discrete,                     !- Opening Area Fraction Schedule Name
  Autocalculate,                          !- Opening Effectiveness {dimensionless}
  180,                                    !- Effective Angle {deg}
  0.875,                                  !- Height Difference {m}
  0.45,                                   !- Discharge Coefficient for Opening
  -100,                                   !- Minimum Indoor Temperature {C}
  ,                                       !- Minimum Indoor Temperature Schedule Name
  100,                                    !- Maximum Indoor Temperature {C}
  ,                                       !- Maximum Indoor Temperature Schedule Name
  -100,                                   !- Delta Temperature {deltaC}
  ,                                       !- Delta Temperature Schedule Name
  22,                                     !- Minimum Outdoor Temperature {C}
  ,                                       !- Minimum Outdoor Temperature Schedule Name
  26,                                     !- Maximum Outdoor Temperature {C}
  ,                                       !- Maximum Outdoor Temperature Schedule Name
  40;                                     !- Maximum Wind Speed {m/s}

ZoneVentilation:WindandStackOpenArea,
  Aperture_4f66c14b_Opening,              !- Name
  Room_1410_d508b878,                     !- Zone or Space Name
  11.69,                                  !- Opening Area {m2}
  Always On Discrete,                     !- Opening Area Fraction Schedule Name
  Autocalculate,                          !- Opening Effectiveness {dimensionless}
  180,                                    !- Effective Angle {deg}
  0.875,                                  !- Height Difference {m}
  0.45,                                   !- Discharge Coefficient for Opening
  -100,                                   !- Minimum Indoor Temperature {C}
  ,                                       !- Minimum Indoor Temperature Schedule Name
  100,                                    !- Maximum Indoor Temperature {C}
  ,                                       !- Maximum Indoor Temperature Schedule Name
  -100,                                   !- Delta Temperature {deltaC}
  ,                                       !- Delta Temperature Schedule Name
  22,                                     !- Minimum Outdoor Temperature {C}
  ,                                       !- Minimum Outdoor Temperature Schedule Name
  26,                                     !- Maximum Outdoor Temperature {C}
  ,                                       !- Maximum Outdoor Temperature Schedule Name
  40;                                     !- Maximum Wind Speed {m/s}

ZoneVentilation:WindandStackOpenArea,
  Aperture_e1b459d1_Opening,              !- Name
  Room_1410_d508b878,                     !- Zone or Space Name
  11.69,                                  !- Opening Area {m2}
  Always On Discrete,                     !- Opening Area Fraction Schedule Name
  Autocalculate,                          !- Opening Effectiveness {dimensionless}
  180,                                    !- Effective Angle {deg}
  0.875,                                  !- Height Difference {m}
  0.45,                                   !- Discharge Coefficient for Opening
  -100,                                   !- Minimum Indoor Temperature {C}
  ,                                       !- Minimum Indoor Temperature Schedule Name
  100,                                    !- Maximum Indoor Temperature {C}
  ,                                       !- Maximum Indoor Temperature Schedule Name
  -100,                                   !- Delta Temperature {deltaC}
  ,                                       !- Delta Temperature Schedule Name
  22,                                     !- Minimum Outdoor Temperature {C}
  ,                                       !- Minimum Outdoor Temperature Schedule Name
  26,                                     !- Maximum Outdoor Temperature {C}
  ,                                       !- Maximum Outdoor Temperature Schedule Name
  40;                                     !- Maximum Wind Speed {m/s}

ZoneVentilation:WindandStackOpenArea,
  Aperture_2b81cc97_Opening,              !- Name
  Room_1410_d508b878,                     !- Zone or Space Name
  11.69,                                  !- Opening Area {m2}
  Always On Discrete,                     !- Opening Area Fraction Schedule Name
  Autocalculate,                          !- Opening Effectiveness {dimensionless}
  180,                                    !- Effective Angle {deg}
  0.875,                                  !- Height Difference {m}
  0.45,                                   !- Discharge Coefficient for Opening
  -100,                                   !- Minimum Indoor Temperature {C}
  ,                                       !- Minimum Indoor Temperature Schedule Name
  100,                                    !- Maximum Indoor Temperature {C}
  ,                                       !- Maximum Indoor Temperature Schedule Name
  -100,                                   !- Delta Temperature {deltaC}
  ,                                       !- Delta Temperature Schedule Name
  22,                                     !- Minimum Outdoor Temperature {C}
  ,                                       !- Minimum Outdoor Temperature Schedule Name
  26,                                     !- Maximum Outdoor Temperature {C}
  ,                                       !- Maximum Outdoor Temperature Schedule Name
  40;                                     !- Maximum Wind Speed {m/s}

ZoneVentilation:WindandStackOpenArea,
  Aperture_e48bb9ed_Opening,              !- Name
  Room_1410_d508b878,                     !- Zone or Space Name
  11.69,                                  !- Opening Area {m2}
  Always On Discrete,                     !- Opening Area Fraction Schedule Name
  Autocalculate,                          !- Opening Effectiveness {dimensionless}
  0,                                      !- Effective Angle {deg}
  0.875,                                  !- Height Difference {m}
  0.45,                                   !- Discharge Coefficient for Opening
  -100,                                   !- Minimum Indoor Temperature {C}
  ,                                       !- Minimum Indoor Temperature Schedule Name
  100,                                    !- Maximum Indoor Temperature {C}
  ,                                       !- Maximum Indoor Temperature Schedule Name
  -100,                                   !- Delta Temperature {deltaC}
  ,                                       !- Delta Temperature Schedule Name
  22,                                     !- Minimum Outdoor Temperature {C}
  ,                                       !- Minimum Outdoor Temperature Schedule Name
  26,                                     !- Maximum Outdoor Temperature {C}
  ,                                       !- Maximum Outdoor Temperature Schedule Name
  40;                                     !- Maximum Wind Speed {m/s}

ZoneVentilation:WindandStackOpenArea,
  Aperture_d897731d_Opening,              !- Name
  Room_1410_d508b878,                     !- Zone or Space Name
  11.69,                                  !- Opening Area {m2}
  Always On Discrete,                     !- Opening Area Fraction Schedule Name
  Autocalculate,                          !- Opening Effectiveness {dimensionless}
  0,                                      !- Effective Angle {deg}
  0.875,                                  !- Height Difference {m}
  0.45,                                   !- Discharge Coefficient for Opening
  -100,                                   !- Minimum Indoor Temperature {C}
  ,                                       !- Minimum Indoor Temperature Schedule Name
  100,                                    !- Maximum Indoor Temperature {C}
  ,                                       !- Maximum Indoor Temperature Schedule Name
  -100,                                   !- Delta Temperature {deltaC}
  ,                                       !- Delta Temperature Schedule Name
  22,                                     !- Minimum Outdoor Temperature {C}
  ,                                       !- Minimum Outdoor Temperature Schedule Name
  26,                                     !- Maximum Outdoor Temperature {C}
  ,                                       !- Maximum Outdoor Temperature Schedule Name
  40;                                     !- Maximum Wind Speed {m/s}

ZoneVentilation:WindandStackOpenArea,
  Aperture_69305b70_Opening,              !- Name
  Room_1410_d508b878,                     !- Zone or Space Name
  11.69,                                  !- Opening Area {m2}
  Always On Discrete,                     !- Opening Area Fraction Schedule Name
  Autocalculate,                          !- Opening Effectiveness {dimensionless}
  0,                                      !- Effective Angle {deg}
  0.875,                                  !- Height Difference {m}
  0.45,                                   !- Discharge Coefficient for Opening
  -100,                                   !- Minimum Indoor Temperature {C}
  ,                                       !- Minimum Indoor Temperature Schedule Name
  100,                                    !- Maximum Indoor Temperature {C}
  ,                                       !- Maximum Indoor Temperature Schedule Name
  -100,                                   !- Delta Temperature {deltaC}
  ,                                       !- Delta Temperature Schedule Name
  22,                                     !- Minimum Outdoor Temperature {C}
  ,                                       !- Minimum Outdoor Temperature Schedule Name
  26,                                     !- Maximum Outdoor Temperature {C}
  ,                                       !- Maximum Outdoor Temperature Schedule Name
  40;                                     !- Maximum Wind Speed {m/s}

ZoneVentilation:WindandStackOpenArea,
  Aperture_32859d56_Opening,              !- Name
  Room_1410_d508b878,                     !- Zone or Space Name
  11.69,                                  !- Opening Area {m2}
  Always On Discrete,                     !- Opening Area Fraction Schedule Name
  Autocalculate,                          !- Opening Effectiveness {dimensionless}
  90,                                     !- Effective Angle {deg}
  0.875,                                  !- Height Difference {m}
  0.45,                                   !- Discharge Coefficient for Opening
  -100,                                   !- Minimum Indoor Temperature {C}
  ,                                       !- Minimum Indoor Temperature Schedule Name
  100,                                    !- Maximum Indoor Temperature {C}
  ,                                       !- Maximum Indoor Temperature Schedule Name
  -100,                                   !- Delta Temperature {deltaC}
  ,                                       !- Delta Temperature Schedule Name
  22,                                     !- Minimum Outdoor Temperature {C}
  ,                                       !- Minimum Outdoor Temperature Schedule Name
  26,                                     !- Maximum Outdoor Temperature {C}
  ,                                       !- Maximum Outdoor Temperature Schedule Name
  40;                                     !- Maximum Wind Speed {m/s}

ZoneVentilation:WindandStackOpenArea,
  Aperture_e4524d19_Opening,              !- Name
  Room_1410_d508b878,                     !- Zone or Space Name
  11.69,                                  !- Opening Area {m2}
  Always On Discrete,                     !- Opening Area Fraction Schedule Name
  Autocalculate,                          !- Opening Effectiveness {dimensionless}
  90,                                     !- Effective Angle {deg}
  0.875,                                  !- Height Difference {m}
  0.45,                                   !- Discharge Coefficient for Opening
  -100,                                   !- Minimum Indoor Temperature {C}
  ,                                       !- Minimum Indoor Temperature Schedule Name
  100,                                    !- Maximum Indoor Temperature {C}
  ,                                       !- Maximum Indoor Temperature Schedule Name
  -100,                                   !- Delta Temperature {deltaC}
  ,                                       !- Delta Temperature Schedule Name
  22,                                     !- Minimum Outdoor Temperature {C}
  ,                                       !- Minimum Outdoor Temperature Schedule Name
  26,                                     !- Maximum Outdoor Temperature {C}
  ,                                       !- Maximum Outdoor Temperature Schedule Name
  40;                                     !- Maximum Wind Speed {m/s}

ZoneVentilation:WindandStackOpenArea,
  Aperture_82abd54e_Opening,              !- Name
  Room_1410_d508b878,                     !- Zone or Space Name
  3.248,                                  !- Opening Area {m2}
  Always On Discrete,                     !- Opening Area Fraction Schedule Name
  Autocalculate,                          !- Opening Effectiveness {dimensionless}
  90,                                     !- Effective Angle {deg}
  0.875,                                  !- Height Difference {m}
  0.45,                                   !- Discharge Coefficient for Opening
  -100,                                   !- Minimum Indoor Temperature {C}
  ,                                       !- Minimum Indoor Temperature Schedule Name
  100,                                    !- Maximum Indoor Temperature {C}
  ,                                       !- Maximum Indoor Temperature Schedule Name
  -100,                                   !- Delta Temperature {deltaC}
  ,                                       !- Delta Temperature Schedule Name
  22,                                     !- Minimum Outdoor Temperature {C}
  ,                                       !- Minimum Outdoor Temperature Schedule Name
  26,                                     !- Maximum Outdoor Temperature {C}
  ,                                       !- Maximum Outdoor Temperature Schedule Name
  40;                                     !- Maximum Wind Speed {m/s}

ZoneVentilation:WindandStackOpenArea,
  Aperture_37e595a5_Opening,              !- Name
  Room_1410_d508b878,                     !- Zone or Space Name
  5.39000000000001,                       !- Opening Area {m2}
  Always On Discrete,                     !- Opening Area Fraction Schedule Name
  Autocalculate,                          !- Opening Effectiveness {dimensionless}
  0,                                      !- Effective Angle {deg}
  0.875,                                  !- Height Difference {m}
  0.45,                                   !- Discharge Coefficient for Opening
  -100,                                   !- Minimum Indoor Temperature {C}
  ,                                       !- Minimum Indoor Temperature Schedule Name
  100,                                    !- Maximum Indoor Temperature {C}
  ,                                       !- Maximum Indoor Temperature Schedule Name
  -100,                                   !- Delta Temperature {deltaC}
  ,                                       !- Delta Temperature Schedule Name
  22,                                     !- Minimum Outdoor Temperature {C}
  ,                                       !- Minimum Outdoor Temperature Schedule Name
  26,                                     !- Maximum Outdoor Temperature {C}
  ,                                       !- Maximum Outdoor Temperature Schedule Name
  40;                                     !- Maximum Wind Speed {m/s}

ZoneVentilation:WindandStackOpenArea,
  Aperture_6d257e38_Opening,              !- Name
  Room_1410_d508b878,                     !- Zone or Space Name
  11.69,                                  !- Opening Area {m2}
  Always On Discrete,                     !- Opening Area Fraction Schedule Name
  Autocalculate,                          !- Opening Effectiveness {dimensionless}
  0,                                      !- Effective Angle {deg}
  0.875,                                  !- Height Difference {m}
  0.45,                                   !- Discharge Coefficient for Opening
  -100,                                   !- Minimum Indoor Temperature {C}
  ,                                       !- Minimum Indoor Temperature Schedule Name
  100,                                    !- Maximum Indoor Temperature {C}
  ,                                       !- Maximum Indoor Temperature Schedule Name
  -100,                                   !- Delta Temperature {deltaC}
  ,                                       !- Delta Temperature Schedule Name
  22,                                     !- Minimum Outdoor Temperature {C}
  ,                                       !- Minimum Outdoor Temperature Schedule Name
  26,                                     !- Maximum Outdoor Temperature {C}
  ,                                       !- Maximum Outdoor Temperature Schedule Name
  40;                                     !- Maximum Wind Speed {m/s}

ZoneHVAC:EquipmentConnections,
  Room_1410_d508b878,                     !- Zone Name
  Room_1410_d508b878 Equipment List,      !- Zone Conditioning Equipment List Name
  Room_1410_d508b878 Inlet Node List,     !- Zone Air Inlet Node or NodeList Name
  Room_1410_d508b878 Exhaust Node List,   !- Zone Air Exhaust Node or NodeList Name
  Node 2;                                 !- Zone Air Node Name

NodeList,
  Room_1410_d508b878 Inlet Node List,     !- Name
  Node 21;                                !- Node Name 1

NodeList,
  Room_1410_d508b878 Exhaust Node List,   !- Name
  Node 20;                                !- Node Name 1

ZoneHVAC:IdealLoadsAirSystem,
  Room_1410_d508b878 Ideal Loads Air System, !- Name
  ,                                       !- Availability Schedule Name
  Node 21,                                !- Zone Supply Air Node Name
  Node 20,                                !- Zone Exhaust Air Node Name
  ,                                       !- System Inlet Air Node Name
  50,                                     !- Maximum Heating Supply Air Temperature {C}
  13,                                     !- Minimum Cooling Supply Air Temperature {C}
  ,                                       !- Maximum Heating Supply Air Humidity Ratio {kgWater/kgDryAir}
  ,                                       !- Minimum Cooling Supply Air Humidity Ratio {kgWater/kgDryAir}
  LimitCapacity,                          !- Heating Limit
  ,                                       !- Maximum Heating Air Flow Rate {m3/s}
  Autosize,                               !- Maximum Sensible Heating Capacity {W}
  LimitFlowRateAndCapacity,               !- Cooling Limit
  Autosize,                               !- Maximum Cooling Air Flow Rate {m3/s}
  Autosize,                               !- Maximum Total Cooling Capacity {W}
  WeeklySchedule_2856ceac,                !- Heating Availability Schedule Name
  WeeklySchedule_2856ceac,                !- Cooling Availability Schedule Name
  None,                                   !- Dehumidification Control Type
  ,                                       !- Cooling Sensible Heat Ratio {dimensionless}
  ,                                       !- Humidification Control Type
  Ventilation_b96face6,                   !- Design Specification Outdoor Air Object Name
  ,                                       !- Outdoor Air Inlet Node Name
  None,                                   !- Demand Controlled Ventilation Type
  DifferentialDryBulb,                    !- Outdoor Air Economizer Type
  ,                                       !- Heat Recovery Type
  0,                                      !- Sensible Heat Recovery Effectiveness {dimensionless}
  0;                                      !- Latent Heat Recovery Effectiveness {dimensionless}

ZoneHVAC:EquipmentList,
  Room_1410_d508b878 Equipment List,      !- Name
  SequentialLoad,                         !- Load Distribution Scheme
  ZoneHVAC:IdealLoadsAirSystem,           !- Zone Equipment Object Type 1
  Room_1410_d508b878 Ideal Loads Air System, !- Zone Equipment Name 1
  1,                                      !- Zone Equipment Cooling Sequence 1
  1,                                      !- Zone Equipment Heating or No-Load Sequence 1
  ,                                       !- Zone Equipment Sequential Cooling Fraction Schedule Name 1
  ;                                       !- Zone Equipment Sequential Heating Fraction Schedule Name 1

Sizing:Zone,
  Room_1410_d508b878,                     !- Zone or ZoneList Name
  SupplyAirTemperature,                   !- Zone Cooling Design Supply Air Temperature Input Method
  14,                                     !- Zone Cooling Design Supply Air Temperature {C}
  11.11,                                  !- Zone Cooling Design Supply Air Temperature Difference {deltaC}
  SupplyAirTemperature,                   !- Zone Heating Design Supply Air Temperature Input Method
  40,                                     !- Zone Heating Design Supply Air Temperature {C}
  11.11,                                  !- Zone Heating Design Supply Air Temperature Difference {deltaC}
  0.0085,                                 !- Zone Cooling Design Supply Air Humidity Ratio {kgWater/kgDryAir}
  0.008,                                  !- Zone Heating Design Supply Air Humidity Ratio {kgWater/kgDryAir}
  Room_1410_d508b878 DSOA Space List,     !- Design Specification Outdoor Air Object Name
  ,                                       !- Zone Heating Sizing Factor
  ,                                       !- Zone Cooling Sizing Factor
  DesignDay,                              !- Cooling Design Air Flow Method
  0,                                      !- Cooling Design Air Flow Rate {m3/s}
  0.000762,                               !- Cooling Minimum Air Flow per Zone Floor Area {m3/s-m2}
  0,                                      !- Cooling Minimum Air Flow {m3/s}
  0,                                      !- Cooling Minimum Air Flow Fraction
  DesignDay,                              !- Heating Design Air Flow Method
  0,                                      !- Heating Design Air Flow Rate {m3/s}
  0.002032,                               !- Heating Maximum Air Flow per Zone Floor Area {m3/s-m2}
  0.1415762,                              !- Heating Maximum Air Flow {m3/s}
  0.3,                                    !- Heating Maximum Air Flow Fraction
  ,                                       !- Design Specification Zone Air Distribution Object Name
  No,                                     !- Account for Dedicated Outdoor Air System
  ,                                       !- Dedicated Outdoor Air System Control Strategy
  ,                                       !- Dedicated Outdoor Air Low Setpoint Temperature for Design {C}
  ,                                       !- Dedicated Outdoor Air High Setpoint Temperature for Design {C}
  Sensible Load Only No Latent Load,      !- Zone Load Sizing Method
  HumidityRatioDifference,                !- Zone Latent Cooling Design Supply Air Humidity Ratio Input Method
  ,                                       !- Zone Dehumidification Design Supply Air Humidity Ratio {kgWater/kgDryAir}
  0.005,                                  !- Zone Cooling Design Supply Air Humidity Ratio Difference {kgWater/kgDryAir}
  HumidityRatioDifference,                !- Zone Latent Heating Design Supply Air Humidity Ratio Input Method
  ,                                       !- Zone Humidification Design Supply Air Humidity Ratio {kgWater/kgDryAir}
  0.005;                                  !- Zone Humidification Design Supply Air Humidity Ratio Difference {kgWater/kgDryAir}

DesignSpecification:OutdoorAir:SpaceList,
  Room_1410_d508b878 DSOA Space List,     !- Name
  Room_1410_d508b878_Space,               !- Space Name 1
  Ventilation_b96face6;                   !- Space Design Specification Outdoor Air Object Name 1

Zone,
  Room_1411_b0c8040d,                     !- Name
  ,                                       !- Direction of Relative North {deg}
  0,                                      !- X Origin {m}
  0,                                      !- Y Origin {m}
  0,                                      !- Z Origin {m}
  ,                                       !- Type
  1,                                      !- Multiplier
  4.5,                                    !- Ceiling Height {m}
  5129.8272,                              !- Volume {m3}
  ,                                       !- Floor Area {m2}
  ,                                       !- Zone Inside Convection Algorithm
  ,                                       !- Zone Outside Convection Algorithm
  Yes;                                    !- Part of Total Floor Area

Space,
  Room_1411_b0c8040d_Space,               !- Name
  Room_1411_b0c8040d,                     !- Zone Name
  ,                                       !- Ceiling Height {m}
  ,                                       !- Volume {m3}
  ,                                       !- Floor Area {m2}
  ProgramType_f9e2e425;                   !- Space Type

BuildingSurface:Detailed,
  Room_1411_b0c8040d..Face0,              !- Name
  Floor,                                  !- Surface Type
  OpaqueConstruction_47cf3687,            !- Construction Name
  Room_1411_b0c8040d,                     !- Zone Name
  Room_1411_b0c8040d_Space,               !- Space Name
  Surface,                                !- Outside Boundary Condition
  Room_1409_470e73cc..Face1,              !- Outside Boundary Condition Object
  NoSun,                                  !- Sun Exposure
  NoWind,                                 !- Wind Exposure
  ,                                       !- View Factor to Ground
  ,                                       !- Number of Vertices
  52.776, 64.8, 4.5,                      !- X,Y,Z Vertex 1 {m}
  52.776, 43.2, 4.5,                      !- X,Y,Z Vertex 2 {m}
  -2.16493489801905e-15, 43.2, 4.5,       !- X,Y,Z Vertex 3 {m}
  8.32667268468868e-16, 64.8, 4.5;        !- X,Y,Z Vertex 4 {m}

BuildingSurface:Detailed,
  Room_1411_b0c8040d..Face1,              !- Name
  Ceiling,                                !- Surface Type
  OpaqueConstruction_47cf3687,            !- Construction Name
  Room_1411_b0c8040d,                     !- Zone Name
  Room_1411_b0c8040d_Space,               !- Space Name
  Surface,                                !- Outside Boundary Condition
  Room_1413_b054cecc..Face0,              !- Outside Boundary Condition Object
  NoSun,                                  !- Sun Exposure
  NoWind,                                 !- Wind Exposure
  ,                                       !- View Factor to Ground
  ,                                       !- Number of Vertices
  1.8503717077086e-15, 64.8, 9,           !- X,Y,Z Vertex 1 {m}
  -1.16573417585641e-15, 43.2, 9,         !- X,Y,Z Vertex 2 {m}
  52.776, 43.2, 9,                        !- X,Y,Z Vertex 3 {m}
  52.776, 64.8, 9;                        !- X,Y,Z Vertex 4 {m}

BuildingSurface:Detailed,
  Room_1411_b0c8040d..Face2,              !- Name
  Wall,                                   !- Surface Type
  OpaqueConstruction_47cf3687,            !- Construction Name
  Room_1411_b0c8040d,                     !- Zone Name
  Room_1411_b0c8040d_Space,               !- Space Name
  Outdoors,                               !- Outside Boundary Condition
  ,                                       !- Outside Boundary Condition Object
  SunExposed,                             !- Sun Exposure
  WindExposed,                            !- Wind Exposure
  ,                                       !- View Factor to Ground
  ,                                       !- Number of Vertices
  36, 43.2, 9,                            !- X,Y,Z Vertex 1 {m}
  36, 43.2, 4.5,                          !- X,Y,Z Vertex 2 {m}
  52.776, 43.2, 4.5,                      !- X,Y,Z Vertex 3 {m}
  52.776, 43.2, 9;                        !- X,Y,Z Vertex 4 {m}

FenestrationSurface:Detailed,
  Aperture_1fc1c6dc,                      !- Name
  Window,                                 !- Surface Type
  WindowConstruction_1dfe9b5d,            !- Construction Name
  Room_1411_b0c8040d..Face2,              !- Building Surface Name
  ,                                       !- Outside Boundary Condition Object
  ,                                       !- View Factor to Ground
  ,                                       !- Frame and Divider Name
  ,                                       !- Multiplier
  ,                                       !- Number of Vertices
  50.66, 43.2, 8.1,                       !- X,Y,Z Vertex 1 {m}
  50.66, 43.2, 4.6,                       !- X,Y,Z Vertex 2 {m}
  52.516, 43.2, 4.6,                      !- X,Y,Z Vertex 3 {m}
  52.516, 43.2, 8.1;                      !- X,Y,Z Vertex 4 {m}

FenestrationSurface:Detailed,
  Aperture_3b7b4e55,                      !- Name
  Window,                                 !- Surface Type
  WindowConstruction_1dfe9b5d,            !- Construction Name
  Room_1411_b0c8040d..Face2,              !- Building Surface Name
  ,                                       !- Outside Boundary Condition Object
  ,                                       !- View Factor to Ground
  ,                                       !- Frame and Divider Name
  ,                                       !- Multiplier
  ,                                       !- Number of Vertices
  36.26, 43.2, 8.1,                       !- X,Y,Z Vertex 1 {m}
  36.26, 43.2, 4.6,                       !- X,Y,Z Vertex 2 {m}
  42.94, 43.2, 4.6,                       !- X,Y,Z Vertex 3 {m}
  42.94, 43.2, 8.1;                       !- X,Y,Z Vertex 4 {m}

FenestrationSurface:Detailed,
  Aperture_c9e56cbe,                      !- Name
  Window,                                 !- Surface Type
  WindowConstruction_1dfe9b5d,            !- Construction Name
  Room_1411_b0c8040d..Face2,              !- Building Surface Name
  ,                                       !- Outside Boundary Condition Object
  ,                                       !- View Factor to Ground
  ,                                       !- Frame and Divider Name
  ,                                       !- Multiplier
  ,                                       !- Number of Vertices
  43.46, 43.2, 8.1,                       !- X,Y,Z Vertex 1 {m}
  43.46, 43.2, 4.6,                       !- X,Y,Z Vertex 2 {m}
  50.14, 43.2, 4.6,                       !- X,Y,Z Vertex 3 {m}
  50.14, 43.2, 8.1;                       !- X,Y,Z Vertex 4 {m}

BuildingSurface:Detailed,
  Room_1411_b0c8040d..Face3,              !- Name
  Wall,                                   !- Surface Type
  OpaqueConstruction_47cf3687,            !- Construction Name
  Room_1411_b0c8040d,                     !- Zone Name
  Room_1411_b0c8040d_Space,               !- Space Name
  Outdoors,                               !- Outside Boundary Condition
  ,                                       !- Outside Boundary Condition Object
  SunExposed,                             !- Sun Exposure
  WindExposed,                            !- Wind Exposure
  ,                                       !- View Factor to Ground
  ,                                       !- Number of Vertices
  -1.16573417585641e-15, 43.2, 9,         !- X,Y,Z Vertex 1 {m}
  -2.16493489801905e-15, 43.2, 4.5,       !- X,Y,Z Vertex 2 {m}
  14.4, 43.2, 4.5,                        !- X,Y,Z Vertex 3 {m}
  14.4, 43.2, 9;                          !- X,Y,Z Vertex 4 {m}

FenestrationSurface:Detailed,
  Aperture_557727ab,                      !- Name
  Window,                                 !- Surface Type
  WindowConstruction_1dfe9b5d,            !- Construction Name
  Room_1411_b0c8040d..Face3,              !- Building Surface Name
  ,                                       !- Outside Boundary Condition Object
  ,                                       !- View Factor to Ground
  ,                                       !- Frame and Divider Name
  ,                                       !- Multiplier
  ,                                       !- Number of Vertices
  7.46, 43.2, 8.1,                        !- X,Y,Z Vertex 1 {m}
  7.46, 43.2, 4.6,                        !- X,Y,Z Vertex 2 {m}
  14.14, 43.2, 4.6,                       !- X,Y,Z Vertex 3 {m}
  14.14, 43.2, 8.1;                       !- X,Y,Z Vertex 4 {m}

FenestrationSurface:Detailed,
  Aperture_678f057a,                      !- Name
  Window,                                 !- Surface Type
  WindowConstruction_1dfe9b5d,            !- Construction Name
  Room_1411_b0c8040d..Face3,              !- Building Surface Name
  ,                                       !- Outside Boundary Condition Object
  ,                                       !- View Factor to Ground
  ,                                       !- Frame and Divider Name
  ,                                       !- Multiplier
  ,                                       !- Number of Vertices
  0.259999999999995, 43.2, 8.1,           !- X,Y,Z Vertex 1 {m}
  0.259999999999995, 43.2, 4.6,           !- X,Y,Z Vertex 2 {m}
  6.94, 43.2, 4.6,                        !- X,Y,Z Vertex 3 {m}
  6.94, 43.2, 8.1;                        !- X,Y,Z Vertex 4 {m}

BuildingSurface:Detailed,
  Room_1411_b0c8040d..Face4,              !- Name
  Wall,                                   !- Surface Type
  OpaqueConstruction_47cf3687,            !- Construction Name
  Room_1411_b0c8040d,                     !- Zone Name
  Room_1411_b0c8040d_Space,               !- Space Name
  Outdoors,                               !- Outside Boundary Condition
  ,                                       !- Outside Boundary Condition Object
  SunExposed,                             !- Sun Exposure
  WindExposed,                            !- Wind Exposure
  ,                                       !- View Factor to Ground
  ,                                       !- Number of Vertices
  52.776, 64.8, 9,                        !- X,Y,Z Vertex 1 {m}
  52.776, 64.8, 4.5,                      !- X,Y,Z Vertex 2 {m}
  8.32667268468868e-16, 64.8, 4.5,        !- X,Y,Z Vertex 3 {m}
  1.8503717077086e-15, 64.8, 9;           !- X,Y,Z Vertex 4 {m}

FenestrationSurface:Detailed,
  Aperture_01ea8c17,                      !- Name
  Window,                                 !- Surface Type
  WindowConstruction_1dfe9b5d,            !- Construction Name
  Room_1411_b0c8040d..Face4,              !- Building Surface Name
  ,                                       !- Outside Boundary Condition Object
  ,                                       !- View Factor to Ground
  ,                                       !- Frame and Divider Name
  ,                                       !- Multiplier
  ,                                       !- Number of Vertices
  21.34, 64.8, 8.1,                       !- X,Y,Z Vertex 1 {m}
  21.34, 64.8, 4.6,                       !- X,Y,Z Vertex 2 {m}
  14.66, 64.8, 4.6,                       !- X,Y,Z Vertex 3 {m}
  14.66, 64.8, 8.1;                       !- X,Y,Z Vertex 4 {m}

FenestrationSurface:Detailed,
  Aperture_2dd49a1d,                      !- Name
  Window,                                 !- Surface Type
  WindowConstruction_1dfe9b5d,            !- Construction Name
  Room_1411_b0c8040d..Face4,              !- Building Surface Name
  ,                                       !- Outside Boundary Condition Object
  ,                                       !- View Factor to Ground
  ,                                       !- Frame and Divider Name
  ,                                       !- Multiplier
  ,                                       !- Number of Vertices
  50.14, 64.8, 8.1,                       !- X,Y,Z Vertex 1 {m}
  50.14, 64.8, 4.6,                       !- X,Y,Z Vertex 2 {m}
  43.46, 64.8, 4.6,                       !- X,Y,Z Vertex 3 {m}
  43.46, 64.8, 8.1;                       !- X,Y,Z Vertex 4 {m}

FenestrationSurface:Detailed,
  Aperture_3ea6823b,                      !- Name
  Window,                                 !- Surface Type
  WindowConstruction_1dfe9b5d,            !- Construction Name
  Room_1411_b0c8040d..Face4,              !- Building Surface Name
  ,                                       !- Outside Boundary Condition Object
  ,                                       !- View Factor to Ground
  ,                                       !- Frame and Divider Name
  ,                                       !- Multiplier
  ,                                       !- Number of Vertices
  42.94, 64.8, 8.1,                       !- X,Y,Z Vertex 1 {m}
  42.94, 64.8, 4.6,                       !- X,Y,Z Vertex 2 {m}
  36.26, 64.8, 4.6,                       !- X,Y,Z Vertex 3 {m}
  36.26, 64.8, 8.1;                       !- X,Y,Z Vertex 4 {m}

FenestrationSurface:Detailed,
  Aperture_532c71a4,                      !- Name
  Window,                                 !- Surface Type
  WindowConstruction_1dfe9b5d,            !- Construction Name
  Room_1411_b0c8040d..Face4,              !- Building Surface Name
  ,                                       !- Outside Boundary Condition Object
  ,                                       !- View Factor to Ground
  ,                                       !- Frame and Divider Name
  ,                                       !- Multiplier
  ,                                       !- Number of Vertices
  6.94, 64.8, 8.1,                        !- X,Y,Z Vertex 1 {m}
  6.94, 64.8, 4.6,                        !- X,Y,Z Vertex 2 {m}
  0.26, 64.8, 4.6,                        !- X,Y,Z Vertex 3 {m}
  0.26, 64.8, 8.1;                        !- X,Y,Z Vertex 4 {m}

FenestrationSurface:Detailed,
  Aperture_617ba0c6,                      !- Name
  Window,                                 !- Surface Type
  WindowConstruction_1dfe9b5d,            !- Construction Name
  Room_1411_b0c8040d..Face4,              !- Building Surface Name
  ,                                       !- Outside Boundary Condition Object
  ,                                       !- View Factor to Ground
  ,                                       !- Frame and Divider Name
  ,                                       !- Multiplier
  ,                                       !- Number of Vertices
  28.54, 64.8, 8.1,                       !- X,Y,Z Vertex 1 {m}
  28.54, 64.8, 4.6,                       !- X,Y,Z Vertex 2 {m}
  21.86, 64.8, 4.6,                       !- X,Y,Z Vertex 3 {m}
  21.86, 64.8, 8.1;                       !- X,Y,Z Vertex 4 {m}

FenestrationSurface:Detailed,
  Aperture_78dda051,                      !- Name
  Window,                                 !- Surface Type
  WindowConstruction_1dfe9b5d,            !- Construction Name
  Room_1411_b0c8040d..Face4,              !- Building Surface Name
  ,                                       !- Outside Boundary Condition Object
  ,                                       !- View Factor to Ground
  ,                                       !- Frame and Divider Name
  ,                                       !- Multiplier
  ,                                       !- Number of Vertices
  52.516, 64.8, 8.1,                      !- X,Y,Z Vertex 1 {m}
  52.516, 64.8, 4.6,                      !- X,Y,Z Vertex 2 {m}
  50.66, 64.8, 4.6,                       !- X,Y,Z Vertex 3 {m}
  50.66, 64.8, 8.1;                       !- X,Y,Z Vertex 4 {m}

FenestrationSurface:Detailed,
  Aperture_ab01d404,                      !- Name
  Window,                                 !- Surface Type
  WindowConstruction_1dfe9b5d,            !- Construction Name
  Room_1411_b0c8040d..Face4,              !- Building Surface Name
  ,                                       !- Outside Boundary Condition Object
  ,                                       !- View Factor to Ground
  ,                                       !- Frame and Divider Name
  ,                                       !- Multiplier
  ,                                       !- Number of Vertices
  14.14, 64.8, 8.1,                       !- X,Y,Z Vertex 1 {m}
  14.14, 64.8, 4.6,                       !- X,Y,Z Vertex 2 {m}
  7.46, 64.8, 4.6,                        !- X,Y,Z Vertex 3 {m}
  7.46, 64.8, 8.1;                        !- X,Y,Z Vertex 4 {m}

FenestrationSurface:Detailed,
  Aperture_e6011055,                      !- Name
  Window,                                 !- Surface Type
  WindowConstruction_1dfe9b5d,            !- Construction Name
  Room_1411_b0c8040d..Face4,              !- Building Surface Name
  ,                                       !- Outside Boundary Condition Object
  ,                                       !- View Factor to Ground
  ,                                       !- Frame and Divider Name
  ,                                       !- Multiplier
  ,                                       !- Number of Vertices
  35.74, 64.8, 8.1,                       !- X,Y,Z Vertex 1 {m}
  35.74, 64.8, 4.6,                       !- X,Y,Z Vertex 2 {m}
  29.06, 64.8, 4.6,                       !- X,Y,Z Vertex 3 {m}
  29.06, 64.8, 8.1;                       !- X,Y,Z Vertex 4 {m}

BuildingSurface:Detailed,
  Room_1411_b0c8040d..Face5,              !- Name
  Wall,                                   !- Surface Type
  OpaqueConstruction_47cf3687,            !- Construction Name
  Room_1411_b0c8040d,                     !- Zone Name
  Room_1411_b0c8040d_Space,               !- Space Name
  Outdoors,                               !- Outside Boundary Condition
  ,                                       !- Outside Boundary Condition Object
  SunExposed,                             !- Sun Exposure
  WindExposed,                            !- Wind Exposure
  ,                                       !- View Factor to Ground
  ,                                       !- Number of Vertices
  1.8503717077086e-15, 64.8, 9,           !- X,Y,Z Vertex 1 {m}
  8.32667268468868e-16, 64.8, 4.5,        !- X,Y,Z Vertex 2 {m}
  -2.16493489801905e-15, 43.2, 4.5,       !- X,Y,Z Vertex 3 {m}
  -1.16573417585641e-15, 43.2, 9;         !- X,Y,Z Vertex 4 {m}

FenestrationSurface:Detailed,
  Aperture_955a0f4d,                      !- Name
  Window,                                 !- Surface Type
  WindowConstruction_1dfe9b5d,            !- Construction Name
  Room_1411_b0c8040d..Face5,              !- Building Surface Name
  ,                                       !- Outside Boundary Condition Object
  ,                                       !- View Factor to Ground
  ,                                       !- Frame and Divider Name
  ,                                       !- Multiplier
  ,                                       !- Number of Vertices
  -2.83960098233525e-15, 50.14, 8.1,      !- X,Y,Z Vertex 1 {m}
  -2.83960098233525e-15, 50.14, 4.6,      !- X,Y,Z Vertex 2 {m}
  -4.24732265818867e-15, 43.46, 4.6,      !- X,Y,Z Vertex 3 {m}
  -4.24732265818867e-15, 43.46, 8.1;      !- X,Y,Z Vertex 4 {m}

FenestrationSurface:Detailed,
  Aperture_e662005b,                      !- Name
  Window,                                 !- Surface Type
  WindowConstruction_1dfe9b5d,            !- Construction Name
  Room_1411_b0c8040d..Face5,              !- Building Surface Name
  ,                                       !- Outside Boundary Condition Object
  ,                                       !- View Factor to Ground
  ,                                       !- Frame and Divider Name
  ,                                       !- Multiplier
  ,                                       !- Number of Vertices
  1.95008618306845e-16, 64.54, 8.1,       !- X,Y,Z Vertex 1 {m}
  1.95008618306845e-16, 64.54, 4.6,       !- X,Y,Z Vertex 2 {m}
  -1.21271305754657e-15, 57.86, 4.6,      !- X,Y,Z Vertex 3 {m}
  -1.21271305754657e-15, 57.86, 8.1;      !- X,Y,Z Vertex 4 {m}

FenestrationSurface:Detailed,
  Aperture_f323aa1c,                      !- Name
  Window,                                 !- Surface Type
  WindowConstruction_1dfe9b5d,            !- Construction Name
  Room_1411_b0c8040d..Face5,              !- Building Surface Name
  ,                                       !- Outside Boundary Condition Object
  ,                                       !- View Factor to Ground
  ,                                       !- Frame and Divider Name
  ,                                       !- Multiplier
  ,                                       !- Number of Vertices
  -1.3222961820142e-15, 57.34, 8.1,       !- X,Y,Z Vertex 1 {m}
  -1.3222961820142e-15, 57.34, 4.6,       !- X,Y,Z Vertex 2 {m}
  -2.73001785786762e-15, 50.66, 4.6,      !- X,Y,Z Vertex 3 {m}
  -2.73001785786762e-15, 50.66, 8.1;      !- X,Y,Z Vertex 4 {m}

BuildingSurface:Detailed,
  Room_1411_b0c8040d..Face6,              !- Name
  Wall,                                   !- Surface Type
  OpaqueConstruction_47cf3687,            !- Construction Name
  Room_1411_b0c8040d,                     !- Zone Name
  Room_1411_b0c8040d_Space,               !- Space Name
  Outdoors,                               !- Outside Boundary Condition
  ,                                       !- Outside Boundary Condition Object
  SunExposed,                             !- Sun Exposure
  WindExposed,                            !- Wind Exposure
  ,                                       !- View Factor to Ground
  ,                                       !- Number of Vertices
  52.776, 43.2, 9,                        !- X,Y,Z Vertex 1 {m}
  52.776, 43.2, 4.5,                      !- X,Y,Z Vertex 2 {m}
  52.776, 64.8, 4.5,                      !- X,Y,Z Vertex 3 {m}
  52.776, 64.8, 9;                        !- X,Y,Z Vertex 4 {m}

FenestrationSurface:Detailed,
  Aperture_716ad61f,                      !- Name
  Window,                                 !- Surface Type
  WindowConstruction_1dfe9b5d,            !- Construction Name
  Room_1411_b0c8040d..Face6,              !- Building Surface Name
  ,                                       !- Outside Boundary Condition Object
  ,                                       !- View Factor to Ground
  ,                                       !- Frame and Divider Name
  ,                                       !- Multiplier
  ,                                       !- Number of Vertices
  52.776, 43.46, 8.1,                     !- X,Y,Z Vertex 1 {m}
  52.776, 43.46, 4.6,                     !- X,Y,Z Vertex 2 {m}
  52.776, 50.14, 4.6,                     !- X,Y,Z Vertex 3 {m}
  52.776, 50.14, 8.1;                     !- X,Y,Z Vertex 4 {m}

FenestrationSurface:Detailed,
  Aperture_7d70bc2a,                      !- Name
  Window,                                 !- Surface Type
  WindowConstruction_1dfe9b5d,            !- Construction Name
  Room_1411_b0c8040d..Face6,              !- Building Surface Name
  ,                                       !- Outside Boundary Condition Object
  ,                                       !- View Factor to Ground
  ,                                       !- Frame and Divider Name
  ,                                       !- Multiplier
  ,                                       !- Number of Vertices
  52.776, 57.86, 8.1,                     !- X,Y,Z Vertex 1 {m}
  52.776, 57.86, 4.6,                     !- X,Y,Z Vertex 2 {m}
  52.776, 64.54, 4.6,                     !- X,Y,Z Vertex 3 {m}
  52.776, 64.54, 8.1;                     !- X,Y,Z Vertex 4 {m}

FenestrationSurface:Detailed,
  Aperture_8b214929,                      !- Name
  Window,                                 !- Surface Type
  WindowConstruction_1dfe9b5d,            !- Construction Name
  Room_1411_b0c8040d..Face6,              !- Building Surface Name
  ,                                       !- Outside Boundary Condition Object
  ,                                       !- View Factor to Ground
  ,                                       !- Frame and Divider Name
  ,                                       !- Multiplier
  ,                                       !- Number of Vertices
  52.776, 50.66, 8.1,                     !- X,Y,Z Vertex 1 {m}
  52.776, 50.66, 4.6,                     !- X,Y,Z Vertex 2 {m}
  52.776, 57.34, 4.6,                     !- X,Y,Z Vertex 3 {m}
  52.776, 57.34, 8.1;                     !- X,Y,Z Vertex 4 {m}

BuildingSurface:Detailed,
  Room_1411_b0c8040d..Face7,              !- Name
  Wall,                                   !- Surface Type
  OpaqueConstruction_47cf3687,            !- Construction Name
  Room_1411_b0c8040d,                     !- Zone Name
  Room_1411_b0c8040d_Space,               !- Space Name
  Surface,                                !- Outside Boundary Condition
  Room_1418_b43ea9f0..Face2,              !- Outside Boundary Condition Object
  NoSun,                                  !- Sun Exposure
  NoWind,                                 !- Wind Exposure
  ,                                       !- View Factor to Ground
  ,                                       !- Number of Vertices
  14.4, 43.2, 9,                          !- X,Y,Z Vertex 1 {m}
  14.4, 43.2, 4.5,                        !- X,Y,Z Vertex 2 {m}
  36, 43.2, 4.5,                          !- X,Y,Z Vertex 3 {m}
  36, 43.2, 9;                            !- X,Y,Z Vertex 4 {m}

FenestrationSurface:Detailed,
  Aperture_0970beeb,                      !- Name
  Window,                                 !- Surface Type
  WindowConstruction_1dfe9b5d,            !- Construction Name
  Room_1411_b0c8040d..Face7,              !- Building Surface Name
  Ajd_Aperture_0970beeb,                  !- Outside Boundary Condition Object
  ,                                       !- View Factor to Ground
  ,                                       !- Frame and Divider Name
  ,                                       !- Multiplier
  ,                                       !- Number of Vertices
  28.9, 43.2, 6.8,                        !- X,Y,Z Vertex 1 {m}
  28.9, 43.2, 4.7,                        !- X,Y,Z Vertex 2 {m}
  29.8, 43.2, 4.7,                        !- X,Y,Z Vertex 3 {m}
  29.8, 43.2, 6.8;                        !- X,Y,Z Vertex 4 {m}

FenestrationSurface:Detailed,
  Aperture_64622235,                      !- Name
  Window,                                 !- Surface Type
  WindowConstruction_1dfe9b5d,            !- Construction Name
  Room_1411_b0c8040d..Face7,              !- Building Surface Name
  Ajd_Aperture_64622235,                  !- Outside Boundary Condition Object
  ,                                       !- View Factor to Ground
  ,                                       !- Frame and Divider Name
  ,                                       !- Multiplier
  ,                                       !- Number of Vertices
  21.7, 43.2, 6.8,                        !- X,Y,Z Vertex 1 {m}
  21.7, 43.2, 4.7,                        !- X,Y,Z Vertex 2 {m}
  22.6, 43.2, 4.7,                        !- X,Y,Z Vertex 3 {m}
  22.6, 43.2, 6.8;                        !- X,Y,Z Vertex 4 {m}

FenestrationSurface:Detailed,
  Aperture_a3237b01,                      !- Name
  Window,                                 !- Surface Type
  WindowConstruction_1dfe9b5d,            !- Construction Name
  Room_1411_b0c8040d..Face7,              !- Building Surface Name
  Ajd_Aperture_a3237b01,                  !- Outside Boundary Condition Object
  ,                                       !- View Factor to Ground
  ,                                       !- Frame and Divider Name
  ,                                       !- Multiplier
  ,                                       !- Number of Vertices
  27.9, 43.2, 6.8,                        !- X,Y,Z Vertex 1 {m}
  27.9, 43.2, 4.7,                        !- X,Y,Z Vertex 2 {m}
  28.7, 43.2, 4.7,                        !- X,Y,Z Vertex 3 {m}
  28.7, 43.2, 6.8;                        !- X,Y,Z Vertex 4 {m}

FenestrationSurface:Detailed,
  Aperture_b997b4d8,                      !- Name
  Window,                                 !- Surface Type
  WindowConstruction_1dfe9b5d,            !- Construction Name
  Room_1411_b0c8040d..Face7,              !- Building Surface Name
  Ajd_Aperture_b997b4d8,                  !- Outside Boundary Condition Object
  ,                                       !- View Factor to Ground
  ,                                       !- Frame and Divider Name
  ,                                       !- Multiplier
  ,                                       !- Number of Vertices
  35.1, 43.2, 6.8,                        !- X,Y,Z Vertex 1 {m}
  35.1, 43.2, 4.7,                        !- X,Y,Z Vertex 2 {m}
  35.9, 43.2, 4.7,                        !- X,Y,Z Vertex 3 {m}
  35.9, 43.2, 6.8;                        !- X,Y,Z Vertex 4 {m}

FenestrationSurface:Detailed,
  Aperture_d49ac95e,                      !- Name
  Window,                                 !- Surface Type
  WindowConstruction_1dfe9b5d,            !- Construction Name
  Room_1411_b0c8040d..Face7,              !- Building Surface Name
  Ajd_Aperture_d49ac95e,                  !- Outside Boundary Condition Object
  ,                                       !- View Factor to Ground
  ,                                       !- Frame and Divider Name
  ,                                       !- Multiplier
  ,                                       !- Number of Vertices
  14.5, 43.2, 6.8,                        !- X,Y,Z Vertex 1 {m}
  14.5, 43.2, 4.7,                        !- X,Y,Z Vertex 2 {m}
  15.4, 43.2, 4.7,                        !- X,Y,Z Vertex 3 {m}
  15.4, 43.2, 6.8;                        !- X,Y,Z Vertex 4 {m}

FenestrationSurface:Detailed,
  Aperture_f0ee8ce0,                      !- Name
  Window,                                 !- Surface Type
  WindowConstruction_1dfe9b5d,            !- Construction Name
  Room_1411_b0c8040d..Face7,              !- Building Surface Name
  Ajd_Aperture_f0ee8ce0,                  !- Outside Boundary Condition Object
  ,                                       !- View Factor to Ground
  ,                                       !- Frame and Divider Name
  ,                                       !- Multiplier
  ,                                       !- Number of Vertices
  20.7, 43.2, 6.8,                        !- X,Y,Z Vertex 1 {m}
  20.7, 43.2, 4.7,                        !- X,Y,Z Vertex 2 {m}
  21.5, 43.2, 4.7,                        !- X,Y,Z Vertex 3 {m}
  21.5, 43.2, 6.8;                        !- X,Y,Z Vertex 4 {m}

ZoneControl:Thermostat,
  Room_1411_b0c8040d Thermostat,          !- Name
  Room_1411_b0c8040d,                     !- Zone or ZoneList Name
  Room_1411_b0c8040d Thermostat Schedule, !- Control Type Schedule Name
  ThermostatSetpoint:DualSetpoint,        !- Control 1 Object Type
  Setpoint_2eba0a66 2,                    !- Control 1 Name
  ,                                       !- Control 2 Object Type
  ,                                       !- Control 2 Name
  ,                                       !- Control 3 Object Type
  ,                                       !- Control 3 Name
  ,                                       !- Control 4 Object Type
  ,                                       !- Control 4 Name
  0;                                      !- Temperature Difference Between Cutout And Setpoint {deltaC}

Schedule:Compact,
  Room_1411_b0c8040d Thermostat Schedule, !- Name
  Room_1411_b0c8040d Thermostat Schedule Type Limits, !- Schedule Type Limits Name
  Through: 12/31,                         !- Field 1
  For: AllDays,                           !- Field 2
  Until: 24:00,                           !- Field 3
  4;                                      !- Field 4

ScheduleTypeLimits,
  Room_1411_b0c8040d Thermostat Schedule Type Limits, !- Name
  0,                                      !- Lower Limit Value {BasedOnField A3}
  4,                                      !- Upper Limit Value {BasedOnField A3}
  DISCRETE;                               !- Numeric Type

ThermostatSetpoint:DualSetpoint,
  Setpoint_2eba0a66 2,                    !- Name
  ConstantSchedule_3ec00e82,              !- Heating Setpoint Temperature Schedule Name
  ConstantSchedule_b6307482;              !- Cooling Setpoint Temperature Schedule Name

ZoneVentilation:WindandStackOpenArea,
  Aperture_3b7b4e55_Opening,              !- Name
  Room_1411_b0c8040d,                     !- Zone or Space Name
  11.69,                                  !- Opening Area {m2}
  Always On Discrete,                     !- Opening Area Fraction Schedule Name
  Autocalculate,                          !- Opening Effectiveness {dimensionless}
  180,                                    !- Effective Angle {deg}
  0.875,                                  !- Height Difference {m}
  0.45,                                   !- Discharge Coefficient for Opening
  -100,                                   !- Minimum Indoor Temperature {C}
  ,                                       !- Minimum Indoor Temperature Schedule Name
  100,                                    !- Maximum Indoor Temperature {C}
  ,                                       !- Maximum Indoor Temperature Schedule Name
  -100,                                   !- Delta Temperature {deltaC}
  ,                                       !- Delta Temperature Schedule Name
  22,                                     !- Minimum Outdoor Temperature {C}
  ,                                       !- Minimum Outdoor Temperature Schedule Name
  26,                                     !- Maximum Outdoor Temperature {C}
  ,                                       !- Maximum Outdoor Temperature Schedule Name
  40;                                     !- Maximum Wind Speed {m/s}

ZoneVentilation:WindandStackOpenArea,
  Aperture_c9e56cbe_Opening,              !- Name
  Room_1411_b0c8040d,                     !- Zone or Space Name
  11.69,                                  !- Opening Area {m2}
  Always On Discrete,                     !- Opening Area Fraction Schedule Name
  Autocalculate,                          !- Opening Effectiveness {dimensionless}
  180,                                    !- Effective Angle {deg}
  0.875,                                  !- Height Difference {m}
  0.45,                                   !- Discharge Coefficient for Opening
  -100,                                   !- Minimum Indoor Temperature {C}
  ,                                       !- Minimum Indoor Temperature Schedule Name
  100,                                    !- Maximum Indoor Temperature {C}
  ,                                       !- Maximum Indoor Temperature Schedule Name
  -100,                                   !- Delta Temperature {deltaC}
  ,                                       !- Delta Temperature Schedule Name
  22,                                     !- Minimum Outdoor Temperature {C}
  ,                                       !- Minimum Outdoor Temperature Schedule Name
  26,                                     !- Maximum Outdoor Temperature {C}
  ,                                       !- Maximum Outdoor Temperature Schedule Name
  40;                                     !- Maximum Wind Speed {m/s}

ZoneVentilation:WindandStackOpenArea,
  Aperture_1fc1c6dc_Opening,              !- Name
  Room_1411_b0c8040d,                     !- Zone or Space Name
  3.248,                                  !- Opening Area {m2}
  Always On Discrete,                     !- Opening Area Fraction Schedule Name
  Autocalculate,                          !- Opening Effectiveness {dimensionless}
  180,                                    !- Effective Angle {deg}
  0.875,                                  !- Height Difference {m}
  0.45,                                   !- Discharge Coefficient for Opening
  -100,                                   !- Minimum Indoor Temperature {C}
  ,                                       !- Minimum Indoor Temperature Schedule Name
  100,                                    !- Maximum Indoor Temperature {C}
  ,                                       !- Maximum Indoor Temperature Schedule Name
  -100,                                   !- Delta Temperature {deltaC}
  ,                                       !- Delta Temperature Schedule Name
  22,                                     !- Minimum Outdoor Temperature {C}
  ,                                       !- Minimum Outdoor Temperature Schedule Name
  26,                                     !- Maximum Outdoor Temperature {C}
  ,                                       !- Maximum Outdoor Temperature Schedule Name
  40;                                     !- Maximum Wind Speed {m/s}

ZoneVentilation:WindandStackOpenArea,
  Aperture_678f057a_Opening,              !- Name
  Room_1411_b0c8040d,                     !- Zone or Space Name
  11.69,                                  !- Opening Area {m2}
  Always On Discrete,                     !- Opening Area Fraction Schedule Name
  Autocalculate,                          !- Opening Effectiveness {dimensionless}
  180,                                    !- Effective Angle {deg}
  0.875,                                  !- Height Difference {m}
  0.45,                                   !- Discharge Coefficient for Opening
  -100,                                   !- Minimum Indoor Temperature {C}
  ,                                       !- Minimum Indoor Temperature Schedule Name
  100,                                    !- Maximum Indoor Temperature {C}
  ,                                       !- Maximum Indoor Temperature Schedule Name
  -100,                                   !- Delta Temperature {deltaC}
  ,                                       !- Delta Temperature Schedule Name
  22,                                     !- Minimum Outdoor Temperature {C}
  ,                                       !- Minimum Outdoor Temperature Schedule Name
  26,                                     !- Maximum Outdoor Temperature {C}
  ,                                       !- Maximum Outdoor Temperature Schedule Name
  40;                                     !- Maximum Wind Speed {m/s}

ZoneVentilation:WindandStackOpenArea,
  Aperture_557727ab_Opening,              !- Name
  Room_1411_b0c8040d,                     !- Zone or Space Name
  11.69,                                  !- Opening Area {m2}
  Always On Discrete,                     !- Opening Area Fraction Schedule Name
  Autocalculate,                          !- Opening Effectiveness {dimensionless}
  180,                                    !- Effective Angle {deg}
  0.875,                                  !- Height Difference {m}
  0.45,                                   !- Discharge Coefficient for Opening
  -100,                                   !- Minimum Indoor Temperature {C}
  ,                                       !- Minimum Indoor Temperature Schedule Name
  100,                                    !- Maximum Indoor Temperature {C}
  ,                                       !- Maximum Indoor Temperature Schedule Name
  -100,                                   !- Delta Temperature {deltaC}
  ,                                       !- Delta Temperature Schedule Name
  22,                                     !- Minimum Outdoor Temperature {C}
  ,                                       !- Minimum Outdoor Temperature Schedule Name
  26,                                     !- Maximum Outdoor Temperature {C}
  ,                                       !- Maximum Outdoor Temperature Schedule Name
  40;                                     !- Maximum Wind Speed {m/s}

ZoneVentilation:WindandStackOpenArea,
  Aperture_532c71a4_Opening,              !- Name
  Room_1411_b0c8040d,                     !- Zone or Space Name
  11.69,                                  !- Opening Area {m2}
  Always On Discrete,                     !- Opening Area Fraction Schedule Name
  Autocalculate,                          !- Opening Effectiveness {dimensionless}
  0,                                      !- Effective Angle {deg}
  0.875,                                  !- Height Difference {m}
  0.45,                                   !- Discharge Coefficient for Opening
  -100,                                   !- Minimum Indoor Temperature {C}
  ,                                       !- Minimum Indoor Temperature Schedule Name
  100,                                    !- Maximum Indoor Temperature {C}
  ,                                       !- Maximum Indoor Temperature Schedule Name
  -100,                                   !- Delta Temperature {deltaC}
  ,                                       !- Delta Temperature Schedule Name
  22,                                     !- Minimum Outdoor Temperature {C}
  ,                                       !- Minimum Outdoor Temperature Schedule Name
  26,                                     !- Maximum Outdoor Temperature {C}
  ,                                       !- Maximum Outdoor Temperature Schedule Name
  40;                                     !- Maximum Wind Speed {m/s}

ZoneVentilation:WindandStackOpenArea,
  Aperture_ab01d404_Opening,              !- Name
  Room_1411_b0c8040d,                     !- Zone or Space Name
  11.69,                                  !- Opening Area {m2}
  Always On Discrete,                     !- Opening Area Fraction Schedule Name
  Autocalculate,                          !- Opening Effectiveness {dimensionless}
  0,                                      !- Effective Angle {deg}
  0.875,                                  !- Height Difference {m}
  0.45,                                   !- Discharge Coefficient for Opening
  -100,                                   !- Minimum Indoor Temperature {C}
  ,                                       !- Minimum Indoor Temperature Schedule Name
  100,                                    !- Maximum Indoor Temperature {C}
  ,                                       !- Maximum Indoor Temperature Schedule Name
  -100,                                   !- Delta Temperature {deltaC}
  ,                                       !- Delta Temperature Schedule Name
  22,                                     !- Minimum Outdoor Temperature {C}
  ,                                       !- Minimum Outdoor Temperature Schedule Name
  26,                                     !- Maximum Outdoor Temperature {C}
  ,                                       !- Maximum Outdoor Temperature Schedule Name
  40;                                     !- Maximum Wind Speed {m/s}

ZoneVentilation:WindandStackOpenArea,
  Aperture_01ea8c17_Opening,              !- Name
  Room_1411_b0c8040d,                     !- Zone or Space Name
  11.69,                                  !- Opening Area {m2}
  Always On Discrete,                     !- Opening Area Fraction Schedule Name
  Autocalculate,                          !- Opening Effectiveness {dimensionless}
  0,                                      !- Effective Angle {deg}
  0.875,                                  !- Height Difference {m}
  0.45,                                   !- Discharge Coefficient for Opening
  -100,                                   !- Minimum Indoor Temperature {C}
  ,                                       !- Minimum Indoor Temperature Schedule Name
  100,                                    !- Maximum Indoor Temperature {C}
  ,                                       !- Maximum Indoor Temperature Schedule Name
  -100,                                   !- Delta Temperature {deltaC}
  ,                                       !- Delta Temperature Schedule Name
  22,                                     !- Minimum Outdoor Temperature {C}
  ,                                       !- Minimum Outdoor Temperature Schedule Name
  26,                                     !- Maximum Outdoor Temperature {C}
  ,                                       !- Maximum Outdoor Temperature Schedule Name
  40;                                     !- Maximum Wind Speed {m/s}

ZoneVentilation:WindandStackOpenArea,
  Aperture_617ba0c6_Opening,              !- Name
  Room_1411_b0c8040d,                     !- Zone or Space Name
  11.69,                                  !- Opening Area {m2}
  Always On Discrete,                     !- Opening Area Fraction Schedule Name
  Autocalculate,                          !- Opening Effectiveness {dimensionless}
  0,                                      !- Effective Angle {deg}
  0.875,                                  !- Height Difference {m}
  0.45,                                   !- Discharge Coefficient for Opening
  -100,                                   !- Minimum Indoor Temperature {C}
  ,                                       !- Minimum Indoor Temperature Schedule Name
  100,                                    !- Maximum Indoor Temperature {C}
  ,                                       !- Maximum Indoor Temperature Schedule Name
  -100,                                   !- Delta Temperature {deltaC}
  ,                                       !- Delta Temperature Schedule Name
  22,                                     !- Minimum Outdoor Temperature {C}
  ,                                       !- Minimum Outdoor Temperature Schedule Name
  26,                                     !- Maximum Outdoor Temperature {C}
  ,                                       !- Maximum Outdoor Temperature Schedule Name
  40;                                     !- Maximum Wind Speed {m/s}

ZoneVentilation:WindandStackOpenArea,
  Aperture_e6011055_Opening,              !- Name
  Room_1411_b0c8040d,                     !- Zone or Space Name
  11.69,                                  !- Opening Area {m2}
  Always On Discrete,                     !- Opening Area Fraction Schedule Name
  Autocalculate,                          !- Opening Effectiveness {dimensionless}
  0,                                      !- Effective Angle {deg}
  0.875,                                  !- Height Difference {m}
  0.45,                                   !- Discharge Coefficient for Opening
  -100,                                   !- Minimum Indoor Temperature {C}
  ,                                       !- Minimum Indoor Temperature Schedule Name
  100,                                    !- Maximum Indoor Temperature {C}
  ,                                       !- Maximum Indoor Temperature Schedule Name
  -100,                                   !- Delta Temperature {deltaC}
  ,                                       !- Delta Temperature Schedule Name
  22,                                     !- Minimum Outdoor Temperature {C}
  ,                                       !- Minimum Outdoor Temperature Schedule Name
  26,                                     !- Maximum Outdoor Temperature {C}
  ,                                       !- Maximum Outdoor Temperature Schedule Name
  40;                                     !- Maximum Wind Speed {m/s}

ZoneVentilation:WindandStackOpenArea,
  Aperture_3ea6823b_Opening,              !- Name
  Room_1411_b0c8040d,                     !- Zone or Space Name
  11.69,                                  !- Opening Area {m2}
  Always On Discrete,                     !- Opening Area Fraction Schedule Name
  Autocalculate,                          !- Opening Effectiveness {dimensionless}
  0,                                      !- Effective Angle {deg}
  0.875,                                  !- Height Difference {m}
  0.45,                                   !- Discharge Coefficient for Opening
  -100,                                   !- Minimum Indoor Temperature {C}
  ,                                       !- Minimum Indoor Temperature Schedule Name
  100,                                    !- Maximum Indoor Temperature {C}
  ,                                       !- Maximum Indoor Temperature Schedule Name
  -100,                                   !- Delta Temperature {deltaC}
  ,                                       !- Delta Temperature Schedule Name
  22,                                     !- Minimum Outdoor Temperature {C}
  ,                                       !- Minimum Outdoor Temperature Schedule Name
  26,                                     !- Maximum Outdoor Temperature {C}
  ,                                       !- Maximum Outdoor Temperature Schedule Name
  40;                                     !- Maximum Wind Speed {m/s}

ZoneVentilation:WindandStackOpenArea,
  Aperture_2dd49a1d_Opening,              !- Name
  Room_1411_b0c8040d,                     !- Zone or Space Name
  11.69,                                  !- Opening Area {m2}
  Always On Discrete,                     !- Opening Area Fraction Schedule Name
  Autocalculate,                          !- Opening Effectiveness {dimensionless}
  0,                                      !- Effective Angle {deg}
  0.875,                                  !- Height Difference {m}
  0.45,                                   !- Discharge Coefficient for Opening
  -100,                                   !- Minimum Indoor Temperature {C}
  ,                                       !- Minimum Indoor Temperature Schedule Name
  100,                                    !- Maximum Indoor Temperature {C}
  ,                                       !- Maximum Indoor Temperature Schedule Name
  -100,                                   !- Delta Temperature {deltaC}
  ,                                       !- Delta Temperature Schedule Name
  22,                                     !- Minimum Outdoor Temperature {C}
  ,                                       !- Minimum Outdoor Temperature Schedule Name
  26,                                     !- Maximum Outdoor Temperature {C}
  ,                                       !- Maximum Outdoor Temperature Schedule Name
  40;                                     !- Maximum Wind Speed {m/s}

ZoneVentilation:WindandStackOpenArea,
  Aperture_78dda051_Opening,              !- Name
  Room_1411_b0c8040d,                     !- Zone or Space Name
  3.248,                                  !- Opening Area {m2}
  Always On Discrete,                     !- Opening Area Fraction Schedule Name
  Autocalculate,                          !- Opening Effectiveness {dimensionless}
  0,                                      !- Effective Angle {deg}
  0.875,                                  !- Height Difference {m}
  0.45,                                   !- Discharge Coefficient for Opening
  -100,                                   !- Minimum Indoor Temperature {C}
  ,                                       !- Minimum Indoor Temperature Schedule Name
  100,                                    !- Maximum Indoor Temperature {C}
  ,                                       !- Maximum Indoor Temperature Schedule Name
  -100,                                   !- Delta Temperature {deltaC}
  ,                                       !- Delta Temperature Schedule Name
  22,                                     !- Minimum Outdoor Temperature {C}
  ,                                       !- Minimum Outdoor Temperature Schedule Name
  26,                                     !- Maximum Outdoor Temperature {C}
  ,                                       !- Maximum Outdoor Temperature Schedule Name
  40;                                     !- Maximum Wind Speed {m/s}

ZoneVentilation:WindandStackOpenArea,
  Aperture_955a0f4d_Opening,              !- Name
  Room_1411_b0c8040d,                     !- Zone or Space Name
  11.69,                                  !- Opening Area {m2}
  Always On Discrete,                     !- Opening Area Fraction Schedule Name
  Autocalculate,                          !- Opening Effectiveness {dimensionless}
  270,                                    !- Effective Angle {deg}
  0.875,                                  !- Height Difference {m}
  0.45,                                   !- Discharge Coefficient for Opening
  -100,                                   !- Minimum Indoor Temperature {C}
  ,                                       !- Minimum Indoor Temperature Schedule Name
  100,                                    !- Maximum Indoor Temperature {C}
  ,                                       !- Maximum Indoor Temperature Schedule Name
  -100,                                   !- Delta Temperature {deltaC}
  ,                                       !- Delta Temperature Schedule Name
  22,                                     !- Minimum Outdoor Temperature {C}
  ,                                       !- Minimum Outdoor Temperature Schedule Name
  26,                                     !- Maximum Outdoor Temperature {C}
  ,                                       !- Maximum Outdoor Temperature Schedule Name
  40;                                     !- Maximum Wind Speed {m/s}

ZoneVentilation:WindandStackOpenArea,
  Aperture_f323aa1c_Opening,              !- Name
  Room_1411_b0c8040d,                     !- Zone or Space Name
  11.69,                                  !- Opening Area {m2}
  Always On Discrete,                     !- Opening Area Fraction Schedule Name
  Autocalculate,                          !- Opening Effectiveness {dimensionless}
  270,                                    !- Effective Angle {deg}
  0.875,                                  !- Height Difference {m}
  0.45,                                   !- Discharge Coefficient for Opening
  -100,                                   !- Minimum Indoor Temperature {C}
  ,                                       !- Minimum Indoor Temperature Schedule Name
  100,                                    !- Maximum Indoor Temperature {C}
  ,                                       !- Maximum Indoor Temperature Schedule Name
  -100,                                   !- Delta Temperature {deltaC}
  ,                                       !- Delta Temperature Schedule Name
  22,                                     !- Minimum Outdoor Temperature {C}
  ,                                       !- Minimum Outdoor Temperature Schedule Name
  26,                                     !- Maximum Outdoor Temperature {C}
  ,                                       !- Maximum Outdoor Temperature Schedule Name
  40;                                     !- Maximum Wind Speed {m/s}

ZoneVentilation:WindandStackOpenArea,
  Aperture_e662005b_Opening,              !- Name
  Room_1411_b0c8040d,                     !- Zone or Space Name
  11.69,                                  !- Opening Area {m2}
  Always On Discrete,                     !- Opening Area Fraction Schedule Name
  Autocalculate,                          !- Opening Effectiveness {dimensionless}
  270,                                    !- Effective Angle {deg}
  0.875,                                  !- Height Difference {m}
  0.45,                                   !- Discharge Coefficient for Opening
  -100,                                   !- Minimum Indoor Temperature {C}
  ,                                       !- Minimum Indoor Temperature Schedule Name
  100,                                    !- Maximum Indoor Temperature {C}
  ,                                       !- Maximum Indoor Temperature Schedule Name
  -100,                                   !- Delta Temperature {deltaC}
  ,                                       !- Delta Temperature Schedule Name
  22,                                     !- Minimum Outdoor Temperature {C}
  ,                                       !- Minimum Outdoor Temperature Schedule Name
  26,                                     !- Maximum Outdoor Temperature {C}
  ,                                       !- Maximum Outdoor Temperature Schedule Name
  40;                                     !- Maximum Wind Speed {m/s}

ZoneVentilation:WindandStackOpenArea,
  Aperture_716ad61f_Opening,              !- Name
  Room_1411_b0c8040d,                     !- Zone or Space Name
  11.69,                                  !- Opening Area {m2}
  Always On Discrete,                     !- Opening Area Fraction Schedule Name
  Autocalculate,                          !- Opening Effectiveness {dimensionless}
  90,                                     !- Effective Angle {deg}
  0.875,                                  !- Height Difference {m}
  0.45,                                   !- Discharge Coefficient for Opening
  -100,                                   !- Minimum Indoor Temperature {C}
  ,                                       !- Minimum Indoor Temperature Schedule Name
  100,                                    !- Maximum Indoor Temperature {C}
  ,                                       !- Maximum Indoor Temperature Schedule Name
  -100,                                   !- Delta Temperature {deltaC}
  ,                                       !- Delta Temperature Schedule Name
  22,                                     !- Minimum Outdoor Temperature {C}
  ,                                       !- Minimum Outdoor Temperature Schedule Name
  26,                                     !- Maximum Outdoor Temperature {C}
  ,                                       !- Maximum Outdoor Temperature Schedule Name
  40;                                     !- Maximum Wind Speed {m/s}

ZoneVentilation:WindandStackOpenArea,
  Aperture_8b214929_Opening,              !- Name
  Room_1411_b0c8040d,                     !- Zone or Space Name
  11.69,                                  !- Opening Area {m2}
  Always On Discrete,                     !- Opening Area Fraction Schedule Name
  Autocalculate,                          !- Opening Effectiveness {dimensionless}
  90,                                     !- Effective Angle {deg}
  0.875,                                  !- Height Difference {m}
  0.45,                                   !- Discharge Coefficient for Opening
  -100,                                   !- Minimum Indoor Temperature {C}
  ,                                       !- Minimum Indoor Temperature Schedule Name
  100,                                    !- Maximum Indoor Temperature {C}
  ,                                       !- Maximum Indoor Temperature Schedule Name
  -100,                                   !- Delta Temperature {deltaC}
  ,                                       !- Delta Temperature Schedule Name
  22,                                     !- Minimum Outdoor Temperature {C}
  ,                                       !- Minimum Outdoor Temperature Schedule Name
  26,                                     !- Maximum Outdoor Temperature {C}
  ,                                       !- Maximum Outdoor Temperature Schedule Name
  40;                                     !- Maximum Wind Speed {m/s}

ZoneVentilation:WindandStackOpenArea,
  Aperture_7d70bc2a_Opening,              !- Name
  Room_1411_b0c8040d,                     !- Zone or Space Name
  11.69,                                  !- Opening Area {m2}
  Always On Discrete,                     !- Opening Area Fraction Schedule Name
  Autocalculate,                          !- Opening Effectiveness {dimensionless}
  90,                                     !- Effective Angle {deg}
  0.875,                                  !- Height Difference {m}
  0.45,                                   !- Discharge Coefficient for Opening
  -100,                                   !- Minimum Indoor Temperature {C}
  ,                                       !- Minimum Indoor Temperature Schedule Name
  100,                                    !- Maximum Indoor Temperature {C}
  ,                                       !- Maximum Indoor Temperature Schedule Name
  -100,                                   !- Delta Temperature {deltaC}
  ,                                       !- Delta Temperature Schedule Name
  22,                                     !- Minimum Outdoor Temperature {C}
  ,                                       !- Minimum Outdoor Temperature Schedule Name
  26,                                     !- Maximum Outdoor Temperature {C}
  ,                                       !- Maximum Outdoor Temperature Schedule Name
  40;                                     !- Maximum Wind Speed {m/s}

ZoneHVAC:EquipmentConnections,
  Room_1411_b0c8040d,                     !- Zone Name
  Room_1411_b0c8040d Equipment List,      !- Zone Conditioning Equipment List Name
  Room_1411_b0c8040d Inlet Node List,     !- Zone Air Inlet Node or NodeList Name
  Room_1411_b0c8040d Exhaust Node List,   !- Zone Air Exhaust Node or NodeList Name
  Node 3;                                 !- Zone Air Node Name

NodeList,
  Room_1411_b0c8040d Inlet Node List,     !- Name
  Node 23;                                !- Node Name 1

NodeList,
  Room_1411_b0c8040d Exhaust Node List,   !- Name
  Node 22;                                !- Node Name 1

ZoneHVAC:IdealLoadsAirSystem,
  Room_1411_b0c8040d Ideal Loads Air System, !- Name
  ,                                       !- Availability Schedule Name
  Node 23,                                !- Zone Supply Air Node Name
  Node 22,                                !- Zone Exhaust Air Node Name
  ,                                       !- System Inlet Air Node Name
  50,                                     !- Maximum Heating Supply Air Temperature {C}
  13,                                     !- Minimum Cooling Supply Air Temperature {C}
  ,                                       !- Maximum Heating Supply Air Humidity Ratio {kgWater/kgDryAir}
  ,                                       !- Minimum Cooling Supply Air Humidity Ratio {kgWater/kgDryAir}
  LimitCapacity,                          !- Heating Limit
  ,                                       !- Maximum Heating Air Flow Rate {m3/s}
  Autosize,                               !- Maximum Sensible Heating Capacity {W}
  LimitFlowRateAndCapacity,               !- Cooling Limit
  Autosize,                               !- Maximum Cooling Air Flow Rate {m3/s}
  Autosize,                               !- Maximum Total Cooling Capacity {W}
  WeeklySchedule_2856ceac,                !- Heating Availability Schedule Name
  WeeklySchedule_2856ceac,                !- Cooling Availability Schedule Name
  None,                                   !- Dehumidification Control Type
  ,                                       !- Cooling Sensible Heat Ratio {dimensionless}
  ,                                       !- Humidification Control Type
  Ventilation_b96face6,                   !- Design Specification Outdoor Air Object Name
  ,                                       !- Outdoor Air Inlet Node Name
  None,                                   !- Demand Controlled Ventilation Type
  DifferentialDryBulb,                    !- Outdoor Air Economizer Type
  ,                                       !- Heat Recovery Type
  0,                                      !- Sensible Heat Recovery Effectiveness {dimensionless}
  0;                                      !- Latent Heat Recovery Effectiveness {dimensionless}

ZoneHVAC:EquipmentList,
  Room_1411_b0c8040d Equipment List,      !- Name
  SequentialLoad,                         !- Load Distribution Scheme
  ZoneHVAC:IdealLoadsAirSystem,           !- Zone Equipment Object Type 1
  Room_1411_b0c8040d Ideal Loads Air System, !- Zone Equipment Name 1
  1,                                      !- Zone Equipment Cooling Sequence 1
  1,                                      !- Zone Equipment Heating or No-Load Sequence 1
  ,                                       !- Zone Equipment Sequential Cooling Fraction Schedule Name 1
  ;                                       !- Zone Equipment Sequential Heating Fraction Schedule Name 1

Sizing:Zone,
  Room_1411_b0c8040d,                     !- Zone or ZoneList Name
  SupplyAirTemperature,                   !- Zone Cooling Design Supply Air Temperature Input Method
  14,                                     !- Zone Cooling Design Supply Air Temperature {C}
  11.11,                                  !- Zone Cooling Design Supply Air Temperature Difference {deltaC}
  SupplyAirTemperature,                   !- Zone Heating Design Supply Air Temperature Input Method
  40,                                     !- Zone Heating Design Supply Air Temperature {C}
  11.11,                                  !- Zone Heating Design Supply Air Temperature Difference {deltaC}
  0.0085,                                 !- Zone Cooling Design Supply Air Humidity Ratio {kgWater/kgDryAir}
  0.008,                                  !- Zone Heating Design Supply Air Humidity Ratio {kgWater/kgDryAir}
  Room_1411_b0c8040d DSOA Space List,     !- Design Specification Outdoor Air Object Name
  ,                                       !- Zone Heating Sizing Factor
  ,                                       !- Zone Cooling Sizing Factor
  DesignDay,                              !- Cooling Design Air Flow Method
  0,                                      !- Cooling Design Air Flow Rate {m3/s}
  0.000762,                               !- Cooling Minimum Air Flow per Zone Floor Area {m3/s-m2}
  0,                                      !- Cooling Minimum Air Flow {m3/s}
  0,                                      !- Cooling Minimum Air Flow Fraction
  DesignDay,                              !- Heating Design Air Flow Method
  0,                                      !- Heating Design Air Flow Rate {m3/s}
  0.002032,                               !- Heating Maximum Air Flow per Zone Floor Area {m3/s-m2}
  0.1415762,                              !- Heating Maximum Air Flow {m3/s}
  0.3,                                    !- Heating Maximum Air Flow Fraction
  ,                                       !- Design Specification Zone Air Distribution Object Name
  No,                                     !- Account for Dedicated Outdoor Air System
  ,                                       !- Dedicated Outdoor Air System Control Strategy
  ,                                       !- Dedicated Outdoor Air Low Setpoint Temperature for Design {C}
  ,                                       !- Dedicated Outdoor Air High Setpoint Temperature for Design {C}
  Sensible Load Only No Latent Load,      !- Zone Load Sizing Method
  HumidityRatioDifference,                !- Zone Latent Cooling Design Supply Air Humidity Ratio Input Method
  ,                                       !- Zone Dehumidification Design Supply Air Humidity Ratio {kgWater/kgDryAir}
  0.005,                                  !- Zone Cooling Design Supply Air Humidity Ratio Difference {kgWater/kgDryAir}
  HumidityRatioDifference,                !- Zone Latent Heating Design Supply Air Humidity Ratio Input Method
  ,                                       !- Zone Humidification Design Supply Air Humidity Ratio {kgWater/kgDryAir}
  0.005;                                  !- Zone Humidification Design Supply Air Humidity Ratio Difference {kgWater/kgDryAir}

DesignSpecification:OutdoorAir:SpaceList,
  Room_1411_b0c8040d DSOA Space List,     !- Name
  Room_1411_b0c8040d_Space,               !- Space Name 1
  Ventilation_b96face6;                   !- Space Design Specification Outdoor Air Object Name 1

Zone,
  Room_1412_6e864ed8,                     !- Name
  ,                                       !- Direction of Relative North {deg}
  0,                                      !- X Origin {m}
  0,                                      !- Y Origin {m}
  0,                                      !- Z Origin {m}
  ,                                       !- Type
  1,                                      !- Multiplier
  4.5,                                    !- Ceiling Height {m}
  5363.1072,                              !- Volume {m3}
  ,                                       !- Floor Area {m2}
  ,                                       !- Zone Inside Convection Algorithm
  ,                                       !- Zone Outside Convection Algorithm
  Yes;                                    !- Part of Total Floor Area

Space,
  Room_1412_6e864ed8_Space,               !- Name
  Room_1412_6e864ed8,                     !- Zone Name
  ,                                       !- Ceiling Height {m}
  ,                                       !- Volume {m3}
  ,                                       !- Floor Area {m2}
  ProgramType_f9e2e425;                   !- Space Type

BuildingSurface:Detailed,
  Room_1412_6e864ed8..Face0,              !- Name
  Floor,                                  !- Surface Type
  OpaqueConstruction_47cf3687,            !- Construction Name
  Room_1412_6e864ed8,                     !- Zone Name
  Room_1412_6e864ed8_Space,               !- Space Name
  Surface,                                !- Outside Boundary Condition
  Room_1410_d508b878..Face6,              !- Outside Boundary Condition Object
  NoSun,                                  !- Sun Exposure
  NoWind,                                 !- Wind Exposure
  ,                                       !- View Factor to Ground
  ,                                       !- Number of Vertices
  64.8, 28.8, 4.5,                        !- X,Y,Z Vertex 1 {m}
  64.8, 7.105427357601e-14, 4.5,          !- X,Y,Z Vertex 2 {m}
  54, 1.38777878078145e-15, 4.5,          !- X,Y,Z Vertex 3 {m}
  54, 28.8, 4.5;                          !- X,Y,Z Vertex 4 {m}

BuildingSurface:Detailed,
  Room_1412_6e864ed8..Face1,              !- Name
  Floor,                                  !- Surface Type
  OpaqueConstruction_47cf3687,            !- Construction Name
  Room_1412_6e864ed8,                     !- Zone Name
  Room_1412_6e864ed8_Space,               !- Space Name
  Surface,                                !- Outside Boundary Condition
  Room_1410_d508b878..Face7,              !- Outside Boundary Condition Object
  NoSun,                                  !- Sun Exposure
  NoWind,                                 !- Wind Exposure
  ,                                       !- View Factor to Ground
  ,                                       !- Number of Vertices
  86.4, 59.976, 4.5,                      !- X,Y,Z Vertex 1 {m}
  86.4, 43.2, 4.5,                        !- X,Y,Z Vertex 2 {m}
  79.2, 43.2, 4.5,                        !- X,Y,Z Vertex 3 {m}
  79.2, 59.976, 4.5;                      !- X,Y,Z Vertex 4 {m}

BuildingSurface:Detailed,
  Room_1412_6e864ed8..Face10,             !- Name
  Roof,                                   !- Surface Type
  OpaqueConstruction_47cf3687,            !- Construction Name
  Room_1412_6e864ed8,                     !- Zone Name
  Room_1412_6e864ed8_Space,               !- Space Name
  Outdoors,                               !- Outside Boundary Condition
  ,                                       !- Outside Boundary Condition Object
  SunExposed,                             !- Sun Exposure
  WindExposed,                            !- Wind Exposure
  ,                                       !- View Factor to Ground
  ,                                       !- Number of Vertices
  64.8, 28.8, 9,                          !- X,Y,Z Vertex 1 {m}
  64.8, 2.91155988207947e-14, 9,          !- X,Y,Z Vertex 2 {m}
  79.2, 3.21964677141295e-16, 9,          !- X,Y,Z Vertex 3 {m}
  79.2, 28.8, 9;                          !- X,Y,Z Vertex 4 {m}

BuildingSurface:Detailed,
  Room_1412_6e864ed8..Face11,             !- Name
  Roof,                                   !- Surface Type
  OpaqueConstruction_47cf3687,            !- Construction Name
  Room_1412_6e864ed8,                     !- Zone Name
  Room_1412_6e864ed8_Space,               !- Space Name
  Outdoors,                               !- Outside Boundary Condition
  ,                                       !- Outside Boundary Condition Object
  SunExposed,                             !- Sun Exposure
  WindExposed,                            !- Wind Exposure
  ,                                       !- View Factor to Ground
  ,                                       !- Number of Vertices
  64.8, 43.2, 9,                          !- X,Y,Z Vertex 1 {m}
  64.8, 28.8, 9,                          !- X,Y,Z Vertex 2 {m}
  72, 28.8, 9,                            !- X,Y,Z Vertex 3 {m}
  72, 43.2, 9;                            !- X,Y,Z Vertex 4 {m}

BuildingSurface:Detailed,
  Room_1412_6e864ed8..Face12,             !- Name
  Wall,                                   !- Surface Type
  OpaqueConstruction_47cf3687,            !- Construction Name
  Room_1412_6e864ed8,                     !- Zone Name
  Room_1412_6e864ed8_Space,               !- Space Name
  Outdoors,                               !- Outside Boundary Condition
  ,                                       !- Outside Boundary Condition Object
  SunExposed,                             !- Sun Exposure
  WindExposed,                            !- Wind Exposure
  ,                                       !- View Factor to Ground
  ,                                       !- Number of Vertices
  64.8, 59.976, 9,                        !- X,Y,Z Vertex 1 {m}
  64.8, 59.976, 4.5,                      !- X,Y,Z Vertex 2 {m}
  64.8, 28.8, 4.5,                        !- X,Y,Z Vertex 3 {m}
  64.8, 28.8, 9;                          !- X,Y,Z Vertex 4 {m}

FenestrationSurface:Detailed,
  Aperture_10e4e2a4,                      !- Name
  Window,                                 !- Surface Type
  WindowConstruction_1dfe9b5d,            !- Construction Name
  Room_1412_6e864ed8..Face12,             !- Building Surface Name
  ,                                       !- Outside Boundary Condition Object
  ,                                       !- View Factor to Ground
  ,                                       !- Frame and Divider Name
  ,                                       !- Multiplier
  ,                                       !- Number of Vertices
  64.8, 42.94, 8.1,                       !- X,Y,Z Vertex 1 {m}
  64.8, 42.94, 4.6,                       !- X,Y,Z Vertex 2 {m}
  64.8, 36.26, 4.6,                       !- X,Y,Z Vertex 3 {m}
  64.8, 36.26, 8.1;                       !- X,Y,Z Vertex 4 {m}

FenestrationSurface:Detailed,
  Aperture_36453777,                      !- Name
  Window,                                 !- Surface Type
  WindowConstruction_1dfe9b5d,            !- Construction Name
  Room_1412_6e864ed8..Face12,             !- Building Surface Name
  ,                                       !- Outside Boundary Condition Object
  ,                                       !- View Factor to Ground
  ,                                       !- Frame and Divider Name
  ,                                       !- Multiplier
  ,                                       !- Number of Vertices
  64.8, 50.14, 8.1,                       !- X,Y,Z Vertex 1 {m}
  64.8, 50.14, 4.6,                       !- X,Y,Z Vertex 2 {m}
  64.8, 43.46, 4.6,                       !- X,Y,Z Vertex 3 {m}
  64.8, 43.46, 8.1;                       !- X,Y,Z Vertex 4 {m}

FenestrationSurface:Detailed,
  Aperture_6139b766,                      !- Name
  Window,                                 !- Surface Type
  WindowConstruction_1dfe9b5d,            !- Construction Name
  Room_1412_6e864ed8..Face12,             !- Building Surface Name
  ,                                       !- Outside Boundary Condition Object
  ,                                       !- View Factor to Ground
  ,                                       !- Frame and Divider Name
  ,                                       !- Multiplier
  ,                                       !- Number of Vertices
  64.8, 59.716, 8.1,                      !- X,Y,Z Vertex 1 {m}
  64.8, 59.716, 4.6,                      !- X,Y,Z Vertex 2 {m}
  64.8, 57.86, 4.6,                       !- X,Y,Z Vertex 3 {m}
  64.8, 57.86, 8.1;                       !- X,Y,Z Vertex 4 {m}

FenestrationSurface:Detailed,
  Aperture_b0005fe0,                      !- Name
  Window,                                 !- Surface Type
  WindowConstruction_1dfe9b5d,            !- Construction Name
  Room_1412_6e864ed8..Face12,             !- Building Surface Name
  ,                                       !- Outside Boundary Condition Object
  ,                                       !- View Factor to Ground
  ,                                       !- Frame and Divider Name
  ,                                       !- Multiplier
  ,                                       !- Number of Vertices
  64.8, 57.34, 8.1,                       !- X,Y,Z Vertex 1 {m}
  64.8, 57.34, 4.6,                       !- X,Y,Z Vertex 2 {m}
  64.8, 50.66, 4.6,                       !- X,Y,Z Vertex 3 {m}
  64.8, 50.66, 8.1;                       !- X,Y,Z Vertex 4 {m}

FenestrationSurface:Detailed,
  Aperture_c6d5b366,                      !- Name
  Window,                                 !- Surface Type
  WindowConstruction_1dfe9b5d,            !- Construction Name
  Room_1412_6e864ed8..Face12,             !- Building Surface Name
  ,                                       !- Outside Boundary Condition Object
  ,                                       !- View Factor to Ground
  ,                                       !- Frame and Divider Name
  ,                                       !- Multiplier
  ,                                       !- Number of Vertices
  64.8, 35.74, 8.1,                       !- X,Y,Z Vertex 1 {m}
  64.8, 35.74, 4.6,                       !- X,Y,Z Vertex 2 {m}
  64.8, 29.06, 4.6,                       !- X,Y,Z Vertex 3 {m}
  64.8, 29.06, 8.1;                       !- X,Y,Z Vertex 4 {m}

BuildingSurface:Detailed,
  Room_1412_6e864ed8..Face13,             !- Name
  Wall,                                   !- Surface Type
  OpaqueConstruction_47cf3687,            !- Construction Name
  Room_1412_6e864ed8,                     !- Zone Name
  Room_1412_6e864ed8_Space,               !- Space Name
  Outdoors,                               !- Outside Boundary Condition
  ,                                       !- Outside Boundary Condition Object
  SunExposed,                             !- Sun Exposure
  WindExposed,                            !- Wind Exposure
  ,                                       !- View Factor to Ground
  ,                                       !- Number of Vertices
  54, 28.8, 9,                            !- X,Y,Z Vertex 1 {m}
  54, 28.8, 4.5,                          !- X,Y,Z Vertex 2 {m}
  54, 1.38777878078145e-15, 4.5,          !- X,Y,Z Vertex 3 {m}
  54, 1.38777878078145e-15, 9;            !- X,Y,Z Vertex 4 {m}

FenestrationSurface:Detailed,
  Aperture_972fcf25,                      !- Name
  Window,                                 !- Surface Type
  WindowConstruction_1dfe9b5d,            !- Construction Name
  Room_1412_6e864ed8..Face13,             !- Building Surface Name
  ,                                       !- Outside Boundary Condition Object
  ,                                       !- View Factor to Ground
  ,                                       !- Frame and Divider Name
  ,                                       !- Multiplier
  ,                                       !- Number of Vertices
  54, 6.94, 8.1,                          !- X,Y,Z Vertex 1 {m}
  54, 6.94, 4.6,                          !- X,Y,Z Vertex 2 {m}
  54, 0.260000000000003, 4.6,             !- X,Y,Z Vertex 3 {m}
  54, 0.260000000000003, 8.1;             !- X,Y,Z Vertex 4 {m}

FenestrationSurface:Detailed,
  Aperture_b95b7972,                      !- Name
  Window,                                 !- Surface Type
  WindowConstruction_1dfe9b5d,            !- Construction Name
  Room_1412_6e864ed8..Face13,             !- Building Surface Name
  ,                                       !- Outside Boundary Condition Object
  ,                                       !- View Factor to Ground
  ,                                       !- Frame and Divider Name
  ,                                       !- Multiplier
  ,                                       !- Number of Vertices
  54, 28.54, 8.1,                         !- X,Y,Z Vertex 1 {m}
  54, 28.54, 4.6,                         !- X,Y,Z Vertex 2 {m}
  54, 21.86, 4.6,                         !- X,Y,Z Vertex 3 {m}
  54, 21.86, 8.1;                         !- X,Y,Z Vertex 4 {m}

FenestrationSurface:Detailed,
  Aperture_daece375,                      !- Name
  Window,                                 !- Surface Type
  WindowConstruction_1dfe9b5d,            !- Construction Name
  Room_1412_6e864ed8..Face13,             !- Building Surface Name
  ,                                       !- Outside Boundary Condition Object
  ,                                       !- View Factor to Ground
  ,                                       !- Frame and Divider Name
  ,                                       !- Multiplier
  ,                                       !- Number of Vertices
  54, 14.14, 8.1,                         !- X,Y,Z Vertex 1 {m}
  54, 14.14, 4.6,                         !- X,Y,Z Vertex 2 {m}
  54, 7.46, 4.6,                          !- X,Y,Z Vertex 3 {m}
  54, 7.46, 8.1;                          !- X,Y,Z Vertex 4 {m}

FenestrationSurface:Detailed,
  Aperture_faed1efd,                      !- Name
  Window,                                 !- Surface Type
  WindowConstruction_1dfe9b5d,            !- Construction Name
  Room_1412_6e864ed8..Face13,             !- Building Surface Name
  ,                                       !- Outside Boundary Condition Object
  ,                                       !- View Factor to Ground
  ,                                       !- Frame and Divider Name
  ,                                       !- Multiplier
  ,                                       !- Number of Vertices
  54, 21.34, 8.1,                         !- X,Y,Z Vertex 1 {m}
  54, 21.34, 4.6,                         !- X,Y,Z Vertex 2 {m}
  54, 14.66, 4.6,                         !- X,Y,Z Vertex 3 {m}
  54, 14.66, 8.1;                         !- X,Y,Z Vertex 4 {m}

BuildingSurface:Detailed,
  Room_1412_6e864ed8..Face14,             !- Name
  Wall,                                   !- Surface Type
  OpaqueConstruction_47cf3687,            !- Construction Name
  Room_1412_6e864ed8,                     !- Zone Name
  Room_1412_6e864ed8_Space,               !- Space Name
  Outdoors,                               !- Outside Boundary Condition
  ,                                       !- Outside Boundary Condition Object
  SunExposed,                             !- Sun Exposure
  WindExposed,                            !- Wind Exposure
  ,                                       !- View Factor to Ground
  ,                                       !- Number of Vertices
  79.2, 3.21964677141295e-16, 9,          !- X,Y,Z Vertex 1 {m}
  79.2, 1.38777878078145e-15, 4.5,        !- X,Y,Z Vertex 2 {m}
  79.2, 28.8, 4.5,                        !- X,Y,Z Vertex 3 {m}
  79.2, 28.8, 9;                          !- X,Y,Z Vertex 4 {m}

FenestrationSurface:Detailed,
  Aperture_084ca915,                      !- Name
  Window,                                 !- Surface Type
  WindowConstruction_1dfe9b5d,            !- Construction Name
  Room_1412_6e864ed8..Face14,             !- Building Surface Name
  ,                                       !- Outside Boundary Condition Object
  ,                                       !- View Factor to Ground
  ,                                       !- Frame and Divider Name
  ,                                       !- Multiplier
  ,                                       !- Number of Vertices
  79.2, 0.259999999999999, 8.1,           !- X,Y,Z Vertex 1 {m}
  79.2, 0.259999999999999, 4.6,           !- X,Y,Z Vertex 2 {m}
  79.2, 6.94, 4.6,                        !- X,Y,Z Vertex 3 {m}
  79.2, 6.94, 8.1;                        !- X,Y,Z Vertex 4 {m}

FenestrationSurface:Detailed,
  Aperture_31712cb6,                      !- Name
  Window,                                 !- Surface Type
  WindowConstruction_1dfe9b5d,            !- Construction Name
  Room_1412_6e864ed8..Face14,             !- Building Surface Name
  ,                                       !- Outside Boundary Condition Object
  ,                                       !- View Factor to Ground
  ,                                       !- Frame and Divider Name
  ,                                       !- Multiplier
  ,                                       !- Number of Vertices
  79.2, 7.46, 8.1,                        !- X,Y,Z Vertex 1 {m}
  79.2, 7.46, 4.6,                        !- X,Y,Z Vertex 2 {m}
  79.2, 14.14, 4.6,                       !- X,Y,Z Vertex 3 {m}
  79.2, 14.14, 8.1;                       !- X,Y,Z Vertex 4 {m}

FenestrationSurface:Detailed,
  Aperture_7d03e28a,                      !- Name
  Window,                                 !- Surface Type
  WindowConstruction_1dfe9b5d,            !- Construction Name
  Room_1412_6e864ed8..Face14,             !- Building Surface Name
  ,                                       !- Outside Boundary Condition Object
  ,                                       !- View Factor to Ground
  ,                                       !- Frame and Divider Name
  ,                                       !- Multiplier
  ,                                       !- Number of Vertices
  79.2, 14.66, 8.1,                       !- X,Y,Z Vertex 1 {m}
  79.2, 14.66, 4.6,                       !- X,Y,Z Vertex 2 {m}
  79.2, 21.34, 4.6,                       !- X,Y,Z Vertex 3 {m}
  79.2, 21.34, 8.1;                       !- X,Y,Z Vertex 4 {m}

FenestrationSurface:Detailed,
  Aperture_d0b3027a,                      !- Name
  Window,                                 !- Surface Type
  WindowConstruction_1dfe9b5d,            !- Construction Name
  Room_1412_6e864ed8..Face14,             !- Building Surface Name
  ,                                       !- Outside Boundary Condition Object
  ,                                       !- View Factor to Ground
  ,                                       !- Frame and Divider Name
  ,                                       !- Multiplier
  ,                                       !- Number of Vertices
  79.2, 21.86, 8.1,                       !- X,Y,Z Vertex 1 {m}
  79.2, 21.86, 4.6,                       !- X,Y,Z Vertex 2 {m}
  79.2, 28.54, 4.6,                       !- X,Y,Z Vertex 3 {m}
  79.2, 28.54, 8.1;                       !- X,Y,Z Vertex 4 {m}

BuildingSurface:Detailed,
  Room_1412_6e864ed8..Face15,             !- Name
  Wall,                                   !- Surface Type
  OpaqueConstruction_47cf3687,            !- Construction Name
  Room_1412_6e864ed8,                     !- Zone Name
  Room_1412_6e864ed8_Space,               !- Space Name
  Outdoors,                               !- Outside Boundary Condition
  ,                                       !- Outside Boundary Condition Object
  SunExposed,                             !- Sun Exposure
  WindExposed,                            !- Wind Exposure
  ,                                       !- View Factor to Ground
  ,                                       !- Number of Vertices
  54, 1.38777878078145e-15, 9,            !- X,Y,Z Vertex 1 {m}
  54, 1.38777878078145e-15, 4.5,          !- X,Y,Z Vertex 2 {m}
  79.2, 1.38777878078145e-15, 4.5,        !- X,Y,Z Vertex 3 {m}
  79.2, 3.21964677141295e-16, 9;          !- X,Y,Z Vertex 4 {m}

FenestrationSurface:Detailed,
  Aperture_0738b667,                      !- Name
  Window,                                 !- Surface Type
  WindowConstruction_1dfe9b5d,            !- Construction Name
  Room_1412_6e864ed8..Face15,             !- Building Surface Name
  ,                                       !- Outside Boundary Condition Object
  ,                                       !- View Factor to Ground
  ,                                       !- Frame and Divider Name
  ,                                       !- Multiplier
  ,                                       !- Number of Vertices
  65.06, 1.23728188188781e-15, 8.1,       !- X,Y,Z Vertex 1 {m}
  65.06, 1.23728188188781e-15, 4.6,       !- X,Y,Z Vertex 2 {m}
  71.74, 3.24960517049013e-16, 4.6,       !- X,Y,Z Vertex 3 {m}
  71.74, 3.24960517049013e-16, 8.1;       !- X,Y,Z Vertex 4 {m}

FenestrationSurface:Detailed,
  Aperture_0c44e3c3,                      !- Name
  Window,                                 !- Surface Type
  WindowConstruction_1dfe9b5d,            !- Construction Name
  Room_1412_6e864ed8..Face15,             !- Building Surface Name
  ,                                       !- Outside Boundary Condition Object
  ,                                       !- View Factor to Ground
  ,                                       !- Frame and Divider Name
  ,                                       !- Multiplier
  ,                                       !- Number of Vertices
  57.86, 2.22062227512724e-15, 8.1,       !- X,Y,Z Vertex 1 {m}
  57.86, 2.22062227512724e-15, 4.6,       !- X,Y,Z Vertex 2 {m}
  64.54, 1.30830091028844e-15, 4.6,       !- X,Y,Z Vertex 3 {m}
  64.54, 1.30830091028844e-15, 8.1;       !- X,Y,Z Vertex 4 {m}

FenestrationSurface:Detailed,
  Aperture_d1117d61,                      !- Name
  Window,                                 !- Surface Type
  WindowConstruction_1dfe9b5d,            !- Construction Name
  Room_1412_6e864ed8..Face15,             !- Building Surface Name
  ,                                       !- Outside Boundary Condition Object
  ,                                       !- View Factor to Ground
  ,                                       !- Frame and Divider Name
  ,                                       !- Multiplier
  ,                                       !- Number of Vertices
  72.26, 2.53941488648388e-16, 8.1,       !- X,Y,Z Vertex 1 {m}
  72.26, 2.53941488648388e-16, 4.6,       !- X,Y,Z Vertex 2 {m}
  78.94, -6.5837987619041e-16, 4.6,       !- X,Y,Z Vertex 3 {m}
  78.94, -6.5837987619041e-16, 8.1;       !- X,Y,Z Vertex 4 {m}

FenestrationSurface:Detailed,
  Aperture_d7a0620a,                      !- Name
  Window,                                 !- Surface Type
  WindowConstruction_1dfe9b5d,            !- Construction Name
  Room_1412_6e864ed8..Face15,             !- Building Surface Name
  ,                                       !- Outside Boundary Condition Object
  ,                                       !- View Factor to Ground
  ,                                       !- Frame and Divider Name
  ,                                       !- Multiplier
  ,                                       !- Number of Vertices
  54.26, 2.71229247174695e-15, 8.1,       !- X,Y,Z Vertex 1 {m}
  54.26, 2.71229247174695e-15, 4.6,       !- X,Y,Z Vertex 2 {m}
  57.34, 2.29164130352786e-15, 4.6,       !- X,Y,Z Vertex 3 {m}
  57.34, 2.29164130352786e-15, 8.1;       !- X,Y,Z Vertex 4 {m}

BuildingSurface:Detailed,
  Room_1412_6e864ed8..Face16,             !- Name
  Wall,                                   !- Surface Type
  OpaqueConstruction_47cf3687,            !- Construction Name
  Room_1412_6e864ed8,                     !- Zone Name
  Room_1412_6e864ed8_Space,               !- Space Name
  Outdoors,                               !- Outside Boundary Condition
  ,                                       !- Outside Boundary Condition Object
  SunExposed,                             !- Sun Exposure
  WindExposed,                            !- Wind Exposure
  ,                                       !- View Factor to Ground
  ,                                       !- Number of Vertices
  86.4, 59.976, 9,                        !- X,Y,Z Vertex 1 {m}
  86.4, 59.976, 4.5,                      !- X,Y,Z Vertex 2 {m}
  64.8, 59.976, 4.5,                      !- X,Y,Z Vertex 3 {m}
  64.8, 59.976, 9;                        !- X,Y,Z Vertex 4 {m}

FenestrationSurface:Detailed,
  Aperture_11bc4492,                      !- Name
  Window,                                 !- Surface Type
  WindowConstruction_1dfe9b5d,            !- Construction Name
  Room_1412_6e864ed8..Face16,             !- Building Surface Name
  ,                                       !- Outside Boundary Condition Object
  ,                                       !- View Factor to Ground
  ,                                       !- Frame and Divider Name
  ,                                       !- Multiplier
  ,                                       !- Number of Vertices
  78.94, 59.976, 8.1,                     !- X,Y,Z Vertex 1 {m}
  78.94, 59.976, 4.6,                     !- X,Y,Z Vertex 2 {m}
  72.26, 59.976, 4.6,                     !- X,Y,Z Vertex 3 {m}
  72.26, 59.976, 8.1;                     !- X,Y,Z Vertex 4 {m}

FenestrationSurface:Detailed,
  Aperture_4752c1d8,                      !- Name
  Window,                                 !- Surface Type
  WindowConstruction_1dfe9b5d,            !- Construction Name
  Room_1412_6e864ed8..Face16,             !- Building Surface Name
  ,                                       !- Outside Boundary Condition Object
  ,                                       !- View Factor to Ground
  ,                                       !- Frame and Divider Name
  ,                                       !- Multiplier
  ,                                       !- Number of Vertices
  71.74, 59.976, 8.1,                     !- X,Y,Z Vertex 1 {m}
  71.74, 59.976, 4.6,                     !- X,Y,Z Vertex 2 {m}
  65.06, 59.976, 4.6,                     !- X,Y,Z Vertex 3 {m}
  65.06, 59.976, 8.1;                     !- X,Y,Z Vertex 4 {m}

FenestrationSurface:Detailed,
  Aperture_d9265315,                      !- Name
  Window,                                 !- Surface Type
  WindowConstruction_1dfe9b5d,            !- Construction Name
  Room_1412_6e864ed8..Face16,             !- Building Surface Name
  ,                                       !- Outside Boundary Condition Object
  ,                                       !- View Factor to Ground
  ,                                       !- Frame and Divider Name
  ,                                       !- Multiplier
  ,                                       !- Number of Vertices
  86.14, 59.976, 8.1,                     !- X,Y,Z Vertex 1 {m}
  86.14, 59.976, 4.6,                     !- X,Y,Z Vertex 2 {m}
  79.46, 59.976, 4.6,                     !- X,Y,Z Vertex 3 {m}
  79.46, 59.976, 8.1;                     !- X,Y,Z Vertex 4 {m}

BuildingSurface:Detailed,
  Room_1412_6e864ed8..Face17,             !- Name
  Wall,                                   !- Surface Type
  OpaqueConstruction_47cf3687,            !- Construction Name
  Room_1412_6e864ed8,                     !- Zone Name
  Room_1412_6e864ed8_Space,               !- Space Name
  Outdoors,                               !- Outside Boundary Condition
  ,                                       !- Outside Boundary Condition Object
  SunExposed,                             !- Sun Exposure
  WindExposed,                            !- Wind Exposure
  ,                                       !- View Factor to Ground
  ,                                       !- Number of Vertices
  86.4, 43.2, 9,                          !- X,Y,Z Vertex 1 {m}
  86.4, 43.2, 4.5,                        !- X,Y,Z Vertex 2 {m}
  86.4, 59.976, 4.5,                      !- X,Y,Z Vertex 3 {m}
  86.4, 59.976, 9;                        !- X,Y,Z Vertex 4 {m}

FenestrationSurface:Detailed,
  Aperture_9a46b582,                      !- Name
  Window,                                 !- Surface Type
  WindowConstruction_1dfe9b5d,            !- Construction Name
  Room_1412_6e864ed8..Face17,             !- Building Surface Name
  ,                                       !- Outside Boundary Condition Object
  ,                                       !- View Factor to Ground
  ,                                       !- Frame and Divider Name
  ,                                       !- Multiplier
  ,                                       !- Number of Vertices
  86.4, 57.86, 8.1,                       !- X,Y,Z Vertex 1 {m}
  86.4, 57.86, 4.6,                       !- X,Y,Z Vertex 2 {m}
  86.4, 59.716, 4.6,                      !- X,Y,Z Vertex 3 {m}
  86.4, 59.716, 8.1;                      !- X,Y,Z Vertex 4 {m}

FenestrationSurface:Detailed,
  Aperture_ad0ca78f,                      !- Name
  Window,                                 !- Surface Type
  WindowConstruction_1dfe9b5d,            !- Construction Name
  Room_1412_6e864ed8..Face17,             !- Building Surface Name
  ,                                       !- Outside Boundary Condition Object
  ,                                       !- View Factor to Ground
  ,                                       !- Frame and Divider Name
  ,                                       !- Multiplier
  ,                                       !- Number of Vertices
  86.4, 50.66, 8.1,                       !- X,Y,Z Vertex 1 {m}
  86.4, 50.66, 4.6,                       !- X,Y,Z Vertex 2 {m}
  86.4, 57.34, 4.6,                       !- X,Y,Z Vertex 3 {m}
  86.4, 57.34, 8.1;                       !- X,Y,Z Vertex 4 {m}

FenestrationSurface:Detailed,
  Aperture_bd305a95,                      !- Name
  Window,                                 !- Surface Type
  WindowConstruction_1dfe9b5d,            !- Construction Name
  Room_1412_6e864ed8..Face17,             !- Building Surface Name
  ,                                       !- Outside Boundary Condition Object
  ,                                       !- View Factor to Ground
  ,                                       !- Frame and Divider Name
  ,                                       !- Multiplier
  ,                                       !- Number of Vertices
  86.4, 43.46, 8.1,                       !- X,Y,Z Vertex 1 {m}
  86.4, 43.46, 4.6,                       !- X,Y,Z Vertex 2 {m}
  86.4, 50.14, 4.6,                       !- X,Y,Z Vertex 3 {m}
  86.4, 50.14, 8.1;                       !- X,Y,Z Vertex 4 {m}

BuildingSurface:Detailed,
  Room_1412_6e864ed8..Face18,             !- Name
  Wall,                                   !- Surface Type
  OpaqueConstruction_47cf3687,            !- Construction Name
  Room_1412_6e864ed8,                     !- Zone Name
  Room_1412_6e864ed8_Space,               !- Space Name
  Surface,                                !- Outside Boundary Condition
  Room_1419_3cec4092..Face4,              !- Outside Boundary Condition Object
  NoSun,                                  !- Sun Exposure
  NoWind,                                 !- Wind Exposure
  ,                                       !- View Factor to Ground
  ,                                       !- Number of Vertices
  72, 28.8, 9,                            !- X,Y,Z Vertex 1 {m}
  72, 28.8, 4.5,                          !- X,Y,Z Vertex 2 {m}
  72, 43.2, 4.5,                          !- X,Y,Z Vertex 3 {m}
  72, 43.2, 9;                            !- X,Y,Z Vertex 4 {m}

FenestrationSurface:Detailed,
  Ajd_Aperture_5461f52f,                  !- Name
  Window,                                 !- Surface Type
  WindowConstruction_1dfe9b5d,            !- Construction Name
  Room_1412_6e864ed8..Face18,             !- Building Surface Name
  Aperture_5461f52f,                      !- Outside Boundary Condition Object
  ,                                       !- View Factor to Ground
  ,                                       !- Frame and Divider Name
  ,                                       !- Multiplier
  ,                                       !- Number of Vertices
  72, 35, 6.8,                            !- X,Y,Z Vertex 1 {m}
  72, 35, 4.7,                            !- X,Y,Z Vertex 2 {m}
  72, 35.9, 4.7,                          !- X,Y,Z Vertex 3 {m}
  72, 35.9, 6.8;                          !- X,Y,Z Vertex 4 {m}

FenestrationSurface:Detailed,
  Ajd_Aperture_978b90f3,                  !- Name
  Window,                                 !- Surface Type
  WindowConstruction_1dfe9b5d,            !- Construction Name
  Room_1412_6e864ed8..Face18,             !- Building Surface Name
  Aperture_978b90f3,                      !- Outside Boundary Condition Object
  ,                                       !- View Factor to Ground
  ,                                       !- Frame and Divider Name
  ,                                       !- Multiplier
  ,                                       !- Number of Vertices
  72, 28.9, 6.8,                          !- X,Y,Z Vertex 1 {m}
  72, 28.9, 4.7,                          !- X,Y,Z Vertex 2 {m}
  72, 29.7, 4.7,                          !- X,Y,Z Vertex 3 {m}
  72, 29.7, 6.8;                          !- X,Y,Z Vertex 4 {m}

FenestrationSurface:Detailed,
  Ajd_Aperture_9d8150d3,                  !- Name
  Window,                                 !- Surface Type
  WindowConstruction_1dfe9b5d,            !- Construction Name
  Room_1412_6e864ed8..Face18,             !- Building Surface Name
  Aperture_9d8150d3,                      !- Outside Boundary Condition Object
  ,                                       !- View Factor to Ground
  ,                                       !- Frame and Divider Name
  ,                                       !- Multiplier
  ,                                       !- Number of Vertices
  72, 36.1, 6.8,                          !- X,Y,Z Vertex 1 {m}
  72, 36.1, 4.7,                          !- X,Y,Z Vertex 2 {m}
  72, 36.9, 4.7,                          !- X,Y,Z Vertex 3 {m}
  72, 36.9, 6.8;                          !- X,Y,Z Vertex 4 {m}

FenestrationSurface:Detailed,
  Ajd_Aperture_b946a21e,                  !- Name
  Window,                                 !- Surface Type
  WindowConstruction_1dfe9b5d,            !- Construction Name
  Room_1412_6e864ed8..Face18,             !- Building Surface Name
  Aperture_b946a21e,                      !- Outside Boundary Condition Object
  ,                                       !- View Factor to Ground
  ,                                       !- Frame and Divider Name
  ,                                       !- Multiplier
  ,                                       !- Number of Vertices
  72, 42.2, 6.8,                          !- X,Y,Z Vertex 1 {m}
  72, 42.2, 4.7,                          !- X,Y,Z Vertex 2 {m}
  72, 43.1, 4.7,                          !- X,Y,Z Vertex 3 {m}
  72, 43.1, 6.8;                          !- X,Y,Z Vertex 4 {m}

BuildingSurface:Detailed,
  Room_1412_6e864ed8..Face19,             !- Name
  Wall,                                   !- Surface Type
  OpaqueConstruction_47cf3687,            !- Construction Name
  Room_1412_6e864ed8,                     !- Zone Name
  Room_1412_6e864ed8_Space,               !- Space Name
  Surface,                                !- Outside Boundary Condition
  Room_1419_3cec4092..Face5,              !- Outside Boundary Condition Object
  NoSun,                                  !- Sun Exposure
  NoWind,                                 !- Wind Exposure
  ,                                       !- View Factor to Ground
  ,                                       !- Number of Vertices
  72, 43.2, 9,                            !- X,Y,Z Vertex 1 {m}
  72, 43.2, 4.5,                          !- X,Y,Z Vertex 2 {m}
  86.4, 43.2, 4.5,                        !- X,Y,Z Vertex 3 {m}
  86.4, 43.2, 9;                          !- X,Y,Z Vertex 4 {m}

FenestrationSurface:Detailed,
  Aperture_88f04a45,                      !- Name
  Window,                                 !- Surface Type
  WindowConstruction_1dfe9b5d,            !- Construction Name
  Room_1412_6e864ed8..Face19,             !- Building Surface Name
  Ajd_Aperture_88f04a45,                  !- Outside Boundary Condition Object
  ,                                       !- View Factor to Ground
  ,                                       !- Frame and Divider Name
  ,                                       !- Multiplier
  ,                                       !- Number of Vertices
  72.1, 43.2, 6.8,                        !- X,Y,Z Vertex 1 {m}
  72.1, 43.2, 4.7,                        !- X,Y,Z Vertex 2 {m}
  73, 43.2, 4.7,                          !- X,Y,Z Vertex 3 {m}
  73, 43.2, 6.8;                          !- X,Y,Z Vertex 4 {m}

FenestrationSurface:Detailed,
  Aperture_9e87f689,                      !- Name
  Window,                                 !- Surface Type
  WindowConstruction_1dfe9b5d,            !- Construction Name
  Room_1412_6e864ed8..Face19,             !- Building Surface Name
  Ajd_Aperture_9e87f689,                  !- Outside Boundary Condition Object
  ,                                       !- View Factor to Ground
  ,                                       !- Frame and Divider Name
  ,                                       !- Multiplier
  ,                                       !- Number of Vertices
  79.3, 43.2, 6.8,                        !- X,Y,Z Vertex 1 {m}
  79.3, 43.2, 4.7,                        !- X,Y,Z Vertex 2 {m}
  80.2, 43.2, 4.7,                        !- X,Y,Z Vertex 3 {m}
  80.2, 43.2, 6.8;                        !- X,Y,Z Vertex 4 {m}

FenestrationSurface:Detailed,
  Aperture_a0da57ef,                      !- Name
  Window,                                 !- Surface Type
  WindowConstruction_1dfe9b5d,            !- Construction Name
  Room_1412_6e864ed8..Face19,             !- Building Surface Name
  Ajd_Aperture_a0da57ef,                  !- Outside Boundary Condition Object
  ,                                       !- View Factor to Ground
  ,                                       !- Frame and Divider Name
  ,                                       !- Multiplier
  ,                                       !- Number of Vertices
  85.5, 43.2, 6.8,                        !- X,Y,Z Vertex 1 {m}
  85.5, 43.2, 4.7,                        !- X,Y,Z Vertex 2 {m}
  86.3, 43.2, 4.7,                        !- X,Y,Z Vertex 3 {m}
  86.3, 43.2, 6.8;                        !- X,Y,Z Vertex 4 {m}

FenestrationSurface:Detailed,
  Aperture_ba2c1bb4,                      !- Name
  Window,                                 !- Surface Type
  WindowConstruction_1dfe9b5d,            !- Construction Name
  Room_1412_6e864ed8..Face19,             !- Building Surface Name
  Ajd_Aperture_ba2c1bb4,                  !- Outside Boundary Condition Object
  ,                                       !- View Factor to Ground
  ,                                       !- Frame and Divider Name
  ,                                       !- Multiplier
  ,                                       !- Number of Vertices
  78.3, 43.2, 6.8,                        !- X,Y,Z Vertex 1 {m}
  78.3, 43.2, 4.7,                        !- X,Y,Z Vertex 2 {m}
  79.1, 43.2, 4.7,                        !- X,Y,Z Vertex 3 {m}
  79.1, 43.2, 6.8;                        !- X,Y,Z Vertex 4 {m}

BuildingSurface:Detailed,
  Room_1412_6e864ed8..Face2,              !- Name
  Floor,                                  !- Surface Type
  OpaqueConstruction_47cf3687,            !- Construction Name
  Room_1412_6e864ed8,                     !- Zone Name
  Room_1412_6e864ed8_Space,               !- Space Name
  Surface,                                !- Outside Boundary Condition
  Room_1410_d508b878..Face8,              !- Outside Boundary Condition Object
  NoSun,                                  !- Sun Exposure
  NoWind,                                 !- Wind Exposure
  ,                                       !- View Factor to Ground
  ,                                       !- Number of Vertices
  79.2, 59.976, 4.5,                      !- X,Y,Z Vertex 1 {m}
  79.2, 43.2, 4.5,                        !- X,Y,Z Vertex 2 {m}
  72, 43.2, 4.5,                          !- X,Y,Z Vertex 3 {m}
  72, 59.976, 4.5;                        !- X,Y,Z Vertex 4 {m}

BuildingSurface:Detailed,
  Room_1412_6e864ed8..Face20,             !- Name
  Wall,                                   !- Surface Type
  OpaqueConstruction_47cf3687,            !- Construction Name
  Room_1412_6e864ed8,                     !- Zone Name
  Room_1412_6e864ed8_Space,               !- Space Name
  Outdoors,                               !- Outside Boundary Condition
  ,                                       !- Outside Boundary Condition Object
  SunExposed,                             !- Sun Exposure
  WindExposed,                            !- Wind Exposure
  ,                                       !- View Factor to Ground
  ,                                       !- Number of Vertices
  64.8, 28.8, 9,                          !- X,Y,Z Vertex 1 {m}
  64.8, 28.8, 4.5,                        !- X,Y,Z Vertex 2 {m}
  54, 28.8, 4.5,                          !- X,Y,Z Vertex 3 {m}
  54, 28.8, 9;                            !- X,Y,Z Vertex 4 {m}

FenestrationSurface:Detailed,
  Aperture_2d5d4b04,                      !- Name
  Window,                                 !- Surface Type
  WindowConstruction_1dfe9b5d,            !- Construction Name
  Room_1412_6e864ed8..Face20,             !- Building Surface Name
  ,                                       !- Outside Boundary Condition Object
  ,                                       !- View Factor to Ground
  ,                                       !- Frame and Divider Name
  ,                                       !- Multiplier
  ,                                       !- Number of Vertices
  64.54, 28.8, 8.1,                       !- X,Y,Z Vertex 1 {m}
  64.54, 28.8, 4.6,                       !- X,Y,Z Vertex 2 {m}
  57.86, 28.8, 4.6,                       !- X,Y,Z Vertex 3 {m}
  57.86, 28.8, 8.1;                       !- X,Y,Z Vertex 4 {m}

FenestrationSurface:Detailed,
  Aperture_5dc5fd59,                      !- Name
  Window,                                 !- Surface Type
  WindowConstruction_1dfe9b5d,            !- Construction Name
  Room_1412_6e864ed8..Face20,             !- Building Surface Name
  ,                                       !- Outside Boundary Condition Object
  ,                                       !- View Factor to Ground
  ,                                       !- Frame and Divider Name
  ,                                       !- Multiplier
  ,                                       !- Number of Vertices
  57.34, 28.8, 8.1,                       !- X,Y,Z Vertex 1 {m}
  57.34, 28.8, 4.6,                       !- X,Y,Z Vertex 2 {m}
  54.26, 28.8, 4.6,                       !- X,Y,Z Vertex 3 {m}
  54.26, 28.8, 8.1;                       !- X,Y,Z Vertex 4 {m}

BuildingSurface:Detailed,
  Room_1412_6e864ed8..Face21,             !- Name
  Wall,                                   !- Surface Type
  OpaqueConstruction_47cf3687,            !- Construction Name
  Room_1412_6e864ed8,                     !- Zone Name
  Room_1412_6e864ed8_Space,               !- Space Name
  Surface,                                !- Outside Boundary Condition
  Room_1419_3cec4092..Face7,              !- Outside Boundary Condition Object
  NoSun,                                  !- Sun Exposure
  NoWind,                                 !- Wind Exposure
  ,                                       !- View Factor to Ground
  ,                                       !- Number of Vertices
  79.2, 28.8, 9,                          !- X,Y,Z Vertex 1 {m}
  79.2, 28.8, 4.5,                        !- X,Y,Z Vertex 2 {m}
  72, 28.8, 4.5,                          !- X,Y,Z Vertex 3 {m}
  72, 28.8, 9;                            !- X,Y,Z Vertex 4 {m}

FenestrationSurface:Detailed,
  Aperture_a0432652,                      !- Name
  Window,                                 !- Surface Type
  WindowConstruction_1dfe9b5d,            !- Construction Name
  Room_1412_6e864ed8..Face21,             !- Building Surface Name
  Ajd_Aperture_a0432652,                  !- Outside Boundary Condition Object
  ,                                       !- View Factor to Ground
  ,                                       !- Frame and Divider Name
  ,                                       !- Multiplier
  ,                                       !- Number of Vertices
  72.9, 28.8, 6.8,                        !- X,Y,Z Vertex 1 {m}
  72.9, 28.8, 4.7,                        !- X,Y,Z Vertex 2 {m}
  72.1, 28.8, 4.7,                        !- X,Y,Z Vertex 3 {m}
  72.1, 28.8, 6.8;                        !- X,Y,Z Vertex 4 {m}

FenestrationSurface:Detailed,
  Aperture_efa53cae,                      !- Name
  Window,                                 !- Surface Type
  WindowConstruction_1dfe9b5d,            !- Construction Name
  Room_1412_6e864ed8..Face21,             !- Building Surface Name
  Ajd_Aperture_efa53cae,                  !- Outside Boundary Condition Object
  ,                                       !- View Factor to Ground
  ,                                       !- Frame and Divider Name
  ,                                       !- Multiplier
  ,                                       !- Number of Vertices
  79.1, 28.8, 6.8,                        !- X,Y,Z Vertex 1 {m}
  79.1, 28.8, 4.7,                        !- X,Y,Z Vertex 2 {m}
  78.2, 28.8, 4.7,                        !- X,Y,Z Vertex 3 {m}
  78.2, 28.8, 6.8;                        !- X,Y,Z Vertex 4 {m}

BuildingSurface:Detailed,
  Room_1412_6e864ed8..Face3,              !- Name
  Floor,                                  !- Surface Type
  OpaqueConstruction_47cf3687,            !- Construction Name
  Room_1412_6e864ed8,                     !- Zone Name
  Room_1412_6e864ed8_Space,               !- Space Name
  Surface,                                !- Outside Boundary Condition
  Room_1410_d508b878..Face9,              !- Outside Boundary Condition Object
  NoSun,                                  !- Sun Exposure
  NoWind,                                 !- Wind Exposure
  ,                                       !- View Factor to Ground
  ,                                       !- Number of Vertices
  72, 43.2, 4.5,                          !- X,Y,Z Vertex 1 {m}
  72, 28.8, 4.5,                          !- X,Y,Z Vertex 2 {m}
  64.8, 28.8, 4.5,                        !- X,Y,Z Vertex 3 {m}
  64.8, 43.2, 4.5;                        !- X,Y,Z Vertex 4 {m}

BuildingSurface:Detailed,
  Room_1412_6e864ed8..Face4,              !- Name
  Floor,                                  !- Surface Type
  OpaqueConstruction_47cf3687,            !- Construction Name
  Room_1412_6e864ed8,                     !- Zone Name
  Room_1412_6e864ed8_Space,               !- Space Name
  Surface,                                !- Outside Boundary Condition
  Room_1410_d508b878..Face10,             !- Outside Boundary Condition Object
  NoSun,                                  !- Sun Exposure
  NoWind,                                 !- Wind Exposure
  ,                                       !- View Factor to Ground
  ,                                       !- Number of Vertices
  72, 59.976, 4.5,                        !- X,Y,Z Vertex 1 {m}
  72, 43.2, 4.5,                          !- X,Y,Z Vertex 2 {m}
  64.8, 43.2, 4.5,                        !- X,Y,Z Vertex 3 {m}
  64.8, 59.976, 4.5;                      !- X,Y,Z Vertex 4 {m}

BuildingSurface:Detailed,
  Room_1412_6e864ed8..Face5,              !- Name
  Floor,                                  !- Surface Type
  OpaqueConstruction_47cf3687,            !- Construction Name
  Room_1412_6e864ed8,                     !- Zone Name
  Room_1412_6e864ed8_Space,               !- Space Name
  Surface,                                !- Outside Boundary Condition
  Room_1410_d508b878..Face11,             !- Outside Boundary Condition Object
  NoSun,                                  !- Sun Exposure
  NoWind,                                 !- Wind Exposure
  ,                                       !- View Factor to Ground
  ,                                       !- Number of Vertices
  79.2, 28.8, 4.5,                        !- X,Y,Z Vertex 1 {m}
  79.2, 1.38777878078145e-15, 4.5,        !- X,Y,Z Vertex 2 {m}
  64.8, 7.105427357601e-14, 4.5,          !- X,Y,Z Vertex 3 {m}
  64.8, 28.8, 4.5;                        !- X,Y,Z Vertex 4 {m}

BuildingSurface:Detailed,
  Room_1412_6e864ed8..Face6,              !- Name
  Roof,                                   !- Surface Type
  OpaqueConstruction_47cf3687,            !- Construction Name
  Room_1412_6e864ed8,                     !- Zone Name
  Room_1412_6e864ed8_Space,               !- Space Name
  Outdoors,                               !- Outside Boundary Condition
  ,                                       !- Outside Boundary Condition Object
  SunExposed,                             !- Sun Exposure
  WindExposed,                            !- Wind Exposure
  ,                                       !- View Factor to Ground
  ,                                       !- Number of Vertices
  64.8, 59.976, 9,                        !- X,Y,Z Vertex 1 {m}
  64.8, 43.2, 9,                          !- X,Y,Z Vertex 2 {m}
  72, 43.2, 9,                            !- X,Y,Z Vertex 3 {m}
  72, 59.976, 9;                          !- X,Y,Z Vertex 4 {m}

BuildingSurface:Detailed,
  Room_1412_6e864ed8..Face7,              !- Name
  Roof,                                   !- Surface Type
  OpaqueConstruction_47cf3687,            !- Construction Name
  Room_1412_6e864ed8,                     !- Zone Name
  Room_1412_6e864ed8_Space,               !- Space Name
  Outdoors,                               !- Outside Boundary Condition
  ,                                       !- Outside Boundary Condition Object
  SunExposed,                             !- Sun Exposure
  WindExposed,                            !- Wind Exposure
  ,                                       !- View Factor to Ground
  ,                                       !- Number of Vertices
  54, 28.8, 9,                            !- X,Y,Z Vertex 1 {m}
  54, 1.38777878078145e-15, 9,            !- X,Y,Z Vertex 2 {m}
  64.8, 2.91155988207947e-14, 9,          !- X,Y,Z Vertex 3 {m}
  64.8, 28.8, 9;                          !- X,Y,Z Vertex 4 {m}

BuildingSurface:Detailed,
  Room_1412_6e864ed8..Face8,              !- Name
  Roof,                                   !- Surface Type
  OpaqueConstruction_47cf3687,            !- Construction Name
  Room_1412_6e864ed8,                     !- Zone Name
  Room_1412_6e864ed8_Space,               !- Space Name
  Outdoors,                               !- Outside Boundary Condition
  ,                                       !- Outside Boundary Condition Object
  SunExposed,                             !- Sun Exposure
  WindExposed,                            !- Wind Exposure
  ,                                       !- View Factor to Ground
  ,                                       !- Number of Vertices
  79.2, 59.976, 9,                        !- X,Y,Z Vertex 1 {m}
  79.2, 43.2, 9,                          !- X,Y,Z Vertex 2 {m}
  86.4, 43.2, 9,                          !- X,Y,Z Vertex 3 {m}
  86.4, 59.976, 9;                        !- X,Y,Z Vertex 4 {m}

BuildingSurface:Detailed,
  Room_1412_6e864ed8..Face9,              !- Name
  Roof,                                   !- Surface Type
  OpaqueConstruction_47cf3687,            !- Construction Name
  Room_1412_6e864ed8,                     !- Zone Name
  Room_1412_6e864ed8_Space,               !- Space Name
  Outdoors,                               !- Outside Boundary Condition
  ,                                       !- Outside Boundary Condition Object
  SunExposed,                             !- Sun Exposure
  WindExposed,                            !- Wind Exposure
  ,                                       !- View Factor to Ground
  ,                                       !- Number of Vertices
  72, 59.976, 9,                          !- X,Y,Z Vertex 1 {m}
  72, 43.2, 9,                            !- X,Y,Z Vertex 2 {m}
  79.2, 43.2, 9,                          !- X,Y,Z Vertex 3 {m}
  79.2, 59.976, 9;                        !- X,Y,Z Vertex 4 {m}

ZoneControl:Thermostat,
  Room_1412_6e864ed8 Thermostat,          !- Name
  Room_1412_6e864ed8,                     !- Zone or ZoneList Name
  Room_1412_6e864ed8 Thermostat Schedule, !- Control Type Schedule Name
  ThermostatSetpoint:DualSetpoint,        !- Control 1 Object Type
  Setpoint_2eba0a66 3,                    !- Control 1 Name
  ,                                       !- Control 2 Object Type
  ,                                       !- Control 2 Name
  ,                                       !- Control 3 Object Type
  ,                                       !- Control 3 Name
  ,                                       !- Control 4 Object Type
  ,                                       !- Control 4 Name
  0;                                      !- Temperature Difference Between Cutout And Setpoint {deltaC}

Schedule:Compact,
  Room_1412_6e864ed8 Thermostat Schedule, !- Name
  Room_1412_6e864ed8 Thermostat Schedule Type Limits, !- Schedule Type Limits Name
  Through: 12/31,                         !- Field 1
  For: AllDays,                           !- Field 2
  Until: 24:00,                           !- Field 3
  4;                                      !- Field 4

ScheduleTypeLimits,
  Room_1412_6e864ed8 Thermostat Schedule Type Limits, !- Name
  0,                                      !- Lower Limit Value {BasedOnField A3}
  4,                                      !- Upper Limit Value {BasedOnField A3}
  DISCRETE;                               !- Numeric Type

ThermostatSetpoint:DualSetpoint,
  Setpoint_2eba0a66 3,                    !- Name
  ConstantSchedule_3ec00e82,              !- Heating Setpoint Temperature Schedule Name
  ConstantSchedule_b6307482;              !- Cooling Setpoint Temperature Schedule Name

ZoneVentilation:WindandStackOpenArea,
  Aperture_c6d5b366_Opening,              !- Name
  Room_1412_6e864ed8,                     !- Zone or Space Name
  11.69,                                  !- Opening Area {m2}
  Always On Discrete,                     !- Opening Area Fraction Schedule Name
  Autocalculate,                          !- Opening Effectiveness {dimensionless}
  270,                                    !- Effective Angle {deg}
  0.875,                                  !- Height Difference {m}
  0.45,                                   !- Discharge Coefficient for Opening
  -100,                                   !- Minimum Indoor Temperature {C}
  ,                                       !- Minimum Indoor Temperature Schedule Name
  100,                                    !- Maximum Indoor Temperature {C}
  ,                                       !- Maximum Indoor Temperature Schedule Name
  -100,                                   !- Delta Temperature {deltaC}
  ,                                       !- Delta Temperature Schedule Name
  22,                                     !- Minimum Outdoor Temperature {C}
  ,                                       !- Minimum Outdoor Temperature Schedule Name
  26,                                     !- Maximum Outdoor Temperature {C}
  ,                                       !- Maximum Outdoor Temperature Schedule Name
  40;                                     !- Maximum Wind Speed {m/s}

ZoneVentilation:WindandStackOpenArea,
  Aperture_10e4e2a4_Opening,              !- Name
  Room_1412_6e864ed8,                     !- Zone or Space Name
  11.69,                                  !- Opening Area {m2}
  Always On Discrete,                     !- Opening Area Fraction Schedule Name
  Autocalculate,                          !- Opening Effectiveness {dimensionless}
  270,                                    !- Effective Angle {deg}
  0.875,                                  !- Height Difference {m}
  0.45,                                   !- Discharge Coefficient for Opening
  -100,                                   !- Minimum Indoor Temperature {C}
  ,                                       !- Minimum Indoor Temperature Schedule Name
  100,                                    !- Maximum Indoor Temperature {C}
  ,                                       !- Maximum Indoor Temperature Schedule Name
  -100,                                   !- Delta Temperature {deltaC}
  ,                                       !- Delta Temperature Schedule Name
  22,                                     !- Minimum Outdoor Temperature {C}
  ,                                       !- Minimum Outdoor Temperature Schedule Name
  26,                                     !- Maximum Outdoor Temperature {C}
  ,                                       !- Maximum Outdoor Temperature Schedule Name
  40;                                     !- Maximum Wind Speed {m/s}

ZoneVentilation:WindandStackOpenArea,
  Aperture_36453777_Opening,              !- Name
  Room_1412_6e864ed8,                     !- Zone or Space Name
  11.69,                                  !- Opening Area {m2}
  Always On Discrete,                     !- Opening Area Fraction Schedule Name
  Autocalculate,                          !- Opening Effectiveness {dimensionless}
  270,                                    !- Effective Angle {deg}
  0.875,                                  !- Height Difference {m}
  0.45,                                   !- Discharge Coefficient for Opening
  -100,                                   !- Minimum Indoor Temperature {C}
  ,                                       !- Minimum Indoor Temperature Schedule Name
  100,                                    !- Maximum Indoor Temperature {C}
  ,                                       !- Maximum Indoor Temperature Schedule Name
  -100,                                   !- Delta Temperature {deltaC}
  ,                                       !- Delta Temperature Schedule Name
  22,                                     !- Minimum Outdoor Temperature {C}
  ,                                       !- Minimum Outdoor Temperature Schedule Name
  26,                                     !- Maximum Outdoor Temperature {C}
  ,                                       !- Maximum Outdoor Temperature Schedule Name
  40;                                     !- Maximum Wind Speed {m/s}

ZoneVentilation:WindandStackOpenArea,
  Aperture_b0005fe0_Opening,              !- Name
  Room_1412_6e864ed8,                     !- Zone or Space Name
  11.69,                                  !- Opening Area {m2}
  Always On Discrete,                     !- Opening Area Fraction Schedule Name
  Autocalculate,                          !- Opening Effectiveness {dimensionless}
  270,                                    !- Effective Angle {deg}
  0.875,                                  !- Height Difference {m}
  0.45,                                   !- Discharge Coefficient for Opening
  -100,                                   !- Minimum Indoor Temperature {C}
  ,                                       !- Minimum Indoor Temperature Schedule Name
  100,                                    !- Maximum Indoor Temperature {C}
  ,                                       !- Maximum Indoor Temperature Schedule Name
  -100,                                   !- Delta Temperature {deltaC}
  ,                                       !- Delta Temperature Schedule Name
  22,                                     !- Minimum Outdoor Temperature {C}
  ,                                       !- Minimum Outdoor Temperature Schedule Name
  26,                                     !- Maximum Outdoor Temperature {C}
  ,                                       !- Maximum Outdoor Temperature Schedule Name
  40;                                     !- Maximum Wind Speed {m/s}

ZoneVentilation:WindandStackOpenArea,
  Aperture_6139b766_Opening,              !- Name
  Room_1412_6e864ed8,                     !- Zone or Space Name
  3.248,                                  !- Opening Area {m2}
  Always On Discrete,                     !- Opening Area Fraction Schedule Name
  Autocalculate,                          !- Opening Effectiveness {dimensionless}
  270,                                    !- Effective Angle {deg}
  0.875,                                  !- Height Difference {m}
  0.45,                                   !- Discharge Coefficient for Opening
  -100,                                   !- Minimum Indoor Temperature {C}
  ,                                       !- Minimum Indoor Temperature Schedule Name
  100,                                    !- Maximum Indoor Temperature {C}
  ,                                       !- Maximum Indoor Temperature Schedule Name
  -100,                                   !- Delta Temperature {deltaC}
  ,                                       !- Delta Temperature Schedule Name
  22,                                     !- Minimum Outdoor Temperature {C}
  ,                                       !- Minimum Outdoor Temperature Schedule Name
  26,                                     !- Maximum Outdoor Temperature {C}
  ,                                       !- Maximum Outdoor Temperature Schedule Name
  40;                                     !- Maximum Wind Speed {m/s}

ZoneVentilation:WindandStackOpenArea,
  Aperture_972fcf25_Opening,              !- Name
  Room_1412_6e864ed8,                     !- Zone or Space Name
  11.69,                                  !- Opening Area {m2}
  Always On Discrete,                     !- Opening Area Fraction Schedule Name
  Autocalculate,                          !- Opening Effectiveness {dimensionless}
  270,                                    !- Effective Angle {deg}
  0.875,                                  !- Height Difference {m}
  0.45,                                   !- Discharge Coefficient for Opening
  -100,                                   !- Minimum Indoor Temperature {C}
  ,                                       !- Minimum Indoor Temperature Schedule Name
  100,                                    !- Maximum Indoor Temperature {C}
  ,                                       !- Maximum Indoor Temperature Schedule Name
  -100,                                   !- Delta Temperature {deltaC}
  ,                                       !- Delta Temperature Schedule Name
  22,                                     !- Minimum Outdoor Temperature {C}
  ,                                       !- Minimum Outdoor Temperature Schedule Name
  26,                                     !- Maximum Outdoor Temperature {C}
  ,                                       !- Maximum Outdoor Temperature Schedule Name
  40;                                     !- Maximum Wind Speed {m/s}

ZoneVentilation:WindandStackOpenArea,
  Aperture_daece375_Opening,              !- Name
  Room_1412_6e864ed8,                     !- Zone or Space Name
  11.69,                                  !- Opening Area {m2}
  Always On Discrete,                     !- Opening Area Fraction Schedule Name
  Autocalculate,                          !- Opening Effectiveness {dimensionless}
  270,                                    !- Effective Angle {deg}
  0.875,                                  !- Height Difference {m}
  0.45,                                   !- Discharge Coefficient for Opening
  -100,                                   !- Minimum Indoor Temperature {C}
  ,                                       !- Minimum Indoor Temperature Schedule Name
  100,                                    !- Maximum Indoor Temperature {C}
  ,                                       !- Maximum Indoor Temperature Schedule Name
  -100,                                   !- Delta Temperature {deltaC}
  ,                                       !- Delta Temperature Schedule Name
  22,                                     !- Minimum Outdoor Temperature {C}
  ,                                       !- Minimum Outdoor Temperature Schedule Name
  26,                                     !- Maximum Outdoor Temperature {C}
  ,                                       !- Maximum Outdoor Temperature Schedule Name
  40;                                     !- Maximum Wind Speed {m/s}

ZoneVentilation:WindandStackOpenArea,
  Aperture_faed1efd_Opening,              !- Name
  Room_1412_6e864ed8,                     !- Zone or Space Name
  11.69,                                  !- Opening Area {m2}
  Always On Discrete,                     !- Opening Area Fraction Schedule Name
  Autocalculate,                          !- Opening Effectiveness {dimensionless}
  270,                                    !- Effective Angle {deg}
  0.875,                                  !- Height Difference {m}
  0.45,                                   !- Discharge Coefficient for Opening
  -100,                                   !- Minimum Indoor Temperature {C}
  ,                                       !- Minimum Indoor Temperature Schedule Name
  100,                                    !- Maximum Indoor Temperature {C}
  ,                                       !- Maximum Indoor Temperature Schedule Name
  -100,                                   !- Delta Temperature {deltaC}
  ,                                       !- Delta Temperature Schedule Name
  22,                                     !- Minimum Outdoor Temperature {C}
  ,                                       !- Minimum Outdoor Temperature Schedule Name
  26,                                     !- Maximum Outdoor Temperature {C}
  ,                                       !- Maximum Outdoor Temperature Schedule Name
  40;                                     !- Maximum Wind Speed {m/s}

ZoneVentilation:WindandStackOpenArea,
  Aperture_b95b7972_Opening,              !- Name
  Room_1412_6e864ed8,                     !- Zone or Space Name
  11.69,                                  !- Opening Area {m2}
  Always On Discrete,                     !- Opening Area Fraction Schedule Name
  Autocalculate,                          !- Opening Effectiveness {dimensionless}
  270,                                    !- Effective Angle {deg}
  0.875,                                  !- Height Difference {m}
  0.45,                                   !- Discharge Coefficient for Opening
  -100,                                   !- Minimum Indoor Temperature {C}
  ,                                       !- Minimum Indoor Temperature Schedule Name
  100,                                    !- Maximum Indoor Temperature {C}
  ,                                       !- Maximum Indoor Temperature Schedule Name
  -100,                                   !- Delta Temperature {deltaC}
  ,                                       !- Delta Temperature Schedule Name
  22,                                     !- Minimum Outdoor Temperature {C}
  ,                                       !- Minimum Outdoor Temperature Schedule Name
  26,                                     !- Maximum Outdoor Temperature {C}
  ,                                       !- Maximum Outdoor Temperature Schedule Name
  40;                                     !- Maximum Wind Speed {m/s}

ZoneVentilation:WindandStackOpenArea,
  Aperture_084ca915_Opening,              !- Name
  Room_1412_6e864ed8,                     !- Zone or Space Name
  11.69,                                  !- Opening Area {m2}
  Always On Discrete,                     !- Opening Area Fraction Schedule Name
  Autocalculate,                          !- Opening Effectiveness {dimensionless}
  90,                                     !- Effective Angle {deg}
  0.875,                                  !- Height Difference {m}
  0.45,                                   !- Discharge Coefficient for Opening
  -100,                                   !- Minimum Indoor Temperature {C}
  ,                                       !- Minimum Indoor Temperature Schedule Name
  100,                                    !- Maximum Indoor Temperature {C}
  ,                                       !- Maximum Indoor Temperature Schedule Name
  -100,                                   !- Delta Temperature {deltaC}
  ,                                       !- Delta Temperature Schedule Name
  22,                                     !- Minimum Outdoor Temperature {C}
  ,                                       !- Minimum Outdoor Temperature Schedule Name
  26,                                     !- Maximum Outdoor Temperature {C}
  ,                                       !- Maximum Outdoor Temperature Schedule Name
  40;                                     !- Maximum Wind Speed {m/s}

ZoneVentilation:WindandStackOpenArea,
  Aperture_31712cb6_Opening,              !- Name
  Room_1412_6e864ed8,                     !- Zone or Space Name
  11.69,                                  !- Opening Area {m2}
  Always On Discrete,                     !- Opening Area Fraction Schedule Name
  Autocalculate,                          !- Opening Effectiveness {dimensionless}
  90,                                     !- Effective Angle {deg}
  0.875,                                  !- Height Difference {m}
  0.45,                                   !- Discharge Coefficient for Opening
  -100,                                   !- Minimum Indoor Temperature {C}
  ,                                       !- Minimum Indoor Temperature Schedule Name
  100,                                    !- Maximum Indoor Temperature {C}
  ,                                       !- Maximum Indoor Temperature Schedule Name
  -100,                                   !- Delta Temperature {deltaC}
  ,                                       !- Delta Temperature Schedule Name
  22,                                     !- Minimum Outdoor Temperature {C}
  ,                                       !- Minimum Outdoor Temperature Schedule Name
  26,                                     !- Maximum Outdoor Temperature {C}
  ,                                       !- Maximum Outdoor Temperature Schedule Name
  40;                                     !- Maximum Wind Speed {m/s}

ZoneVentilation:WindandStackOpenArea,
  Aperture_7d03e28a_Opening,              !- Name
  Room_1412_6e864ed8,                     !- Zone or Space Name
  11.69,                                  !- Opening Area {m2}
  Always On Discrete,                     !- Opening Area Fraction Schedule Name
  Autocalculate,                          !- Opening Effectiveness {dimensionless}
  90,                                     !- Effective Angle {deg}
  0.875,                                  !- Height Difference {m}
  0.45,                                   !- Discharge Coefficient for Opening
  -100,                                   !- Minimum Indoor Temperature {C}
  ,                                       !- Minimum Indoor Temperature Schedule Name
  100,                                    !- Maximum Indoor Temperature {C}
  ,                                       !- Maximum Indoor Temperature Schedule Name
  -100,                                   !- Delta Temperature {deltaC}
  ,                                       !- Delta Temperature Schedule Name
  22,                                     !- Minimum Outdoor Temperature {C}
  ,                                       !- Minimum Outdoor Temperature Schedule Name
  26,                                     !- Maximum Outdoor Temperature {C}
  ,                                       !- Maximum Outdoor Temperature Schedule Name
  40;                                     !- Maximum Wind Speed {m/s}

ZoneVentilation:WindandStackOpenArea,
  Aperture_d0b3027a_Opening,              !- Name
  Room_1412_6e864ed8,                     !- Zone or Space Name
  11.69,                                  !- Opening Area {m2}
  Always On Discrete,                     !- Opening Area Fraction Schedule Name
  Autocalculate,                          !- Opening Effectiveness {dimensionless}
  90,                                     !- Effective Angle {deg}
  0.875,                                  !- Height Difference {m}
  0.45,                                   !- Discharge Coefficient for Opening
  -100,                                   !- Minimum Indoor Temperature {C}
  ,                                       !- Minimum Indoor Temperature Schedule Name
  100,                                    !- Maximum Indoor Temperature {C}
  ,                                       !- Maximum Indoor Temperature Schedule Name
  -100,                                   !- Delta Temperature {deltaC}
  ,                                       !- Delta Temperature Schedule Name
  22,                                     !- Minimum Outdoor Temperature {C}
  ,                                       !- Minimum Outdoor Temperature Schedule Name
  26,                                     !- Maximum Outdoor Temperature {C}
  ,                                       !- Maximum Outdoor Temperature Schedule Name
  40;                                     !- Maximum Wind Speed {m/s}

ZoneVentilation:WindandStackOpenArea,
  Aperture_d7a0620a_Opening,              !- Name
  Room_1412_6e864ed8,                     !- Zone or Space Name
  5.39000000000001,                       !- Opening Area {m2}
  Always On Discrete,                     !- Opening Area Fraction Schedule Name
  Autocalculate,                          !- Opening Effectiveness {dimensionless}
  180,                                    !- Effective Angle {deg}
  0.875,                                  !- Height Difference {m}
  0.45,                                   !- Discharge Coefficient for Opening
  -100,                                   !- Minimum Indoor Temperature {C}
  ,                                       !- Minimum Indoor Temperature Schedule Name
  100,                                    !- Maximum Indoor Temperature {C}
  ,                                       !- Maximum Indoor Temperature Schedule Name
  -100,                                   !- Delta Temperature {deltaC}
  ,                                       !- Delta Temperature Schedule Name
  22,                                     !- Minimum Outdoor Temperature {C}
  ,                                       !- Minimum Outdoor Temperature Schedule Name
  26,                                     !- Maximum Outdoor Temperature {C}
  ,                                       !- Maximum Outdoor Temperature Schedule Name
  40;                                     !- Maximum Wind Speed {m/s}

ZoneVentilation:WindandStackOpenArea,
  Aperture_0c44e3c3_Opening,              !- Name
  Room_1412_6e864ed8,                     !- Zone or Space Name
  11.69,                                  !- Opening Area {m2}
  Always On Discrete,                     !- Opening Area Fraction Schedule Name
  Autocalculate,                          !- Opening Effectiveness {dimensionless}
  180,                                    !- Effective Angle {deg}
  0.875,                                  !- Height Difference {m}
  0.45,                                   !- Discharge Coefficient for Opening
  -100,                                   !- Minimum Indoor Temperature {C}
  ,                                       !- Minimum Indoor Temperature Schedule Name
  100,                                    !- Maximum Indoor Temperature {C}
  ,                                       !- Maximum Indoor Temperature Schedule Name
  -100,                                   !- Delta Temperature {deltaC}
  ,                                       !- Delta Temperature Schedule Name
  22,                                     !- Minimum Outdoor Temperature {C}
  ,                                       !- Minimum Outdoor Temperature Schedule Name
  26,                                     !- Maximum Outdoor Temperature {C}
  ,                                       !- Maximum Outdoor Temperature Schedule Name
  40;                                     !- Maximum Wind Speed {m/s}

ZoneVentilation:WindandStackOpenArea,
  Aperture_0738b667_Opening,              !- Name
  Room_1412_6e864ed8,                     !- Zone or Space Name
  11.69,                                  !- Opening Area {m2}
  Always On Discrete,                     !- Opening Area Fraction Schedule Name
  Autocalculate,                          !- Opening Effectiveness {dimensionless}
  180,                                    !- Effective Angle {deg}
  0.875,                                  !- Height Difference {m}
  0.45,                                   !- Discharge Coefficient for Opening
  -100,                                   !- Minimum Indoor Temperature {C}
  ,                                       !- Minimum Indoor Temperature Schedule Name
  100,                                    !- Maximum Indoor Temperature {C}
  ,                                       !- Maximum Indoor Temperature Schedule Name
  -100,                                   !- Delta Temperature {deltaC}
  ,                                       !- Delta Temperature Schedule Name
  22,                                     !- Minimum Outdoor Temperature {C}
  ,                                       !- Minimum Outdoor Temperature Schedule Name
  26,                                     !- Maximum Outdoor Temperature {C}
  ,                                       !- Maximum Outdoor Temperature Schedule Name
  40;                                     !- Maximum Wind Speed {m/s}

ZoneVentilation:WindandStackOpenArea,
  Aperture_d1117d61_Opening,              !- Name
  Room_1412_6e864ed8,                     !- Zone or Space Name
  11.69,                                  !- Opening Area {m2}
  Always On Discrete,                     !- Opening Area Fraction Schedule Name
  Autocalculate,                          !- Opening Effectiveness {dimensionless}
  180,                                    !- Effective Angle {deg}
  0.875,                                  !- Height Difference {m}
  0.45,                                   !- Discharge Coefficient for Opening
  -100,                                   !- Minimum Indoor Temperature {C}
  ,                                       !- Minimum Indoor Temperature Schedule Name
  100,                                    !- Maximum Indoor Temperature {C}
  ,                                       !- Maximum Indoor Temperature Schedule Name
  -100,                                   !- Delta Temperature {deltaC}
  ,                                       !- Delta Temperature Schedule Name
  22,                                     !- Minimum Outdoor Temperature {C}
  ,                                       !- Minimum Outdoor Temperature Schedule Name
  26,                                     !- Maximum Outdoor Temperature {C}
  ,                                       !- Maximum Outdoor Temperature Schedule Name
  40;                                     !- Maximum Wind Speed {m/s}

ZoneVentilation:WindandStackOpenArea,
  Aperture_4752c1d8_Opening,              !- Name
  Room_1412_6e864ed8,                     !- Zone or Space Name
  11.69,                                  !- Opening Area {m2}
  Always On Discrete,                     !- Opening Area Fraction Schedule Name
  Autocalculate,                          !- Opening Effectiveness {dimensionless}
  0,                                      !- Effective Angle {deg}
  0.875,                                  !- Height Difference {m}
  0.45,                                   !- Discharge Coefficient for Opening
  -100,                                   !- Minimum Indoor Temperature {C}
  ,                                       !- Minimum Indoor Temperature Schedule Name
  100,                                    !- Maximum Indoor Temperature {C}
  ,                                       !- Maximum Indoor Temperature Schedule Name
  -100,                                   !- Delta Temperature {deltaC}
  ,                                       !- Delta Temperature Schedule Name
  22,                                     !- Minimum Outdoor Temperature {C}
  ,                                       !- Minimum Outdoor Temperature Schedule Name
  26,                                     !- Maximum Outdoor Temperature {C}
  ,                                       !- Maximum Outdoor Temperature Schedule Name
  40;                                     !- Maximum Wind Speed {m/s}

ZoneVentilation:WindandStackOpenArea,
  Aperture_11bc4492_Opening,              !- Name
  Room_1412_6e864ed8,                     !- Zone or Space Name
  11.69,                                  !- Opening Area {m2}
  Always On Discrete,                     !- Opening Area Fraction Schedule Name
  Autocalculate,                          !- Opening Effectiveness {dimensionless}
  0,                                      !- Effective Angle {deg}
  0.875,                                  !- Height Difference {m}
  0.45,                                   !- Discharge Coefficient for Opening
  -100,                                   !- Minimum Indoor Temperature {C}
  ,                                       !- Minimum Indoor Temperature Schedule Name
  100,                                    !- Maximum Indoor Temperature {C}
  ,                                       !- Maximum Indoor Temperature Schedule Name
  -100,                                   !- Delta Temperature {deltaC}
  ,                                       !- Delta Temperature Schedule Name
  22,                                     !- Minimum Outdoor Temperature {C}
  ,                                       !- Minimum Outdoor Temperature Schedule Name
  26,                                     !- Maximum Outdoor Temperature {C}
  ,                                       !- Maximum Outdoor Temperature Schedule Name
  40;                                     !- Maximum Wind Speed {m/s}

ZoneVentilation:WindandStackOpenArea,
  Aperture_d9265315_Opening,              !- Name
  Room_1412_6e864ed8,                     !- Zone or Space Name
  11.69,                                  !- Opening Area {m2}
  Always On Discrete,                     !- Opening Area Fraction Schedule Name
  Autocalculate,                          !- Opening Effectiveness {dimensionless}
  0,                                      !- Effective Angle {deg}
  0.875,                                  !- Height Difference {m}
  0.45,                                   !- Discharge Coefficient for Opening
  -100,                                   !- Minimum Indoor Temperature {C}
  ,                                       !- Minimum Indoor Temperature Schedule Name
  100,                                    !- Maximum Indoor Temperature {C}
  ,                                       !- Maximum Indoor Temperature Schedule Name
  -100,                                   !- Delta Temperature {deltaC}
  ,                                       !- Delta Temperature Schedule Name
  22,                                     !- Minimum Outdoor Temperature {C}
  ,                                       !- Minimum Outdoor Temperature Schedule Name
  26,                                     !- Maximum Outdoor Temperature {C}
  ,                                       !- Maximum Outdoor Temperature Schedule Name
  40;                                     !- Maximum Wind Speed {m/s}

ZoneVentilation:WindandStackOpenArea,
  Aperture_bd305a95_Opening,              !- Name
  Room_1412_6e864ed8,                     !- Zone or Space Name
  11.69,                                  !- Opening Area {m2}
  Always On Discrete,                     !- Opening Area Fraction Schedule Name
  Autocalculate,                          !- Opening Effectiveness {dimensionless}
  90,                                     !- Effective Angle {deg}
  0.875,                                  !- Height Difference {m}
  0.45,                                   !- Discharge Coefficient for Opening
  -100,                                   !- Minimum Indoor Temperature {C}
  ,                                       !- Minimum Indoor Temperature Schedule Name
  100,                                    !- Maximum Indoor Temperature {C}
  ,                                       !- Maximum Indoor Temperature Schedule Name
  -100,                                   !- Delta Temperature {deltaC}
  ,                                       !- Delta Temperature Schedule Name
  22,                                     !- Minimum Outdoor Temperature {C}
  ,                                       !- Minimum Outdoor Temperature Schedule Name
  26,                                     !- Maximum Outdoor Temperature {C}
  ,                                       !- Maximum Outdoor Temperature Schedule Name
  40;                                     !- Maximum Wind Speed {m/s}

ZoneVentilation:WindandStackOpenArea,
  Aperture_ad0ca78f_Opening,              !- Name
  Room_1412_6e864ed8,                     !- Zone or Space Name
  11.69,                                  !- Opening Area {m2}
  Always On Discrete,                     !- Opening Area Fraction Schedule Name
  Autocalculate,                          !- Opening Effectiveness {dimensionless}
  90,                                     !- Effective Angle {deg}
  0.875,                                  !- Height Difference {m}
  0.45,                                   !- Discharge Coefficient for Opening
  -100,                                   !- Minimum Indoor Temperature {C}
  ,                                       !- Minimum Indoor Temperature Schedule Name
  100,                                    !- Maximum Indoor Temperature {C}
  ,                                       !- Maximum Indoor Temperature Schedule Name
  -100,                                   !- Delta Temperature {deltaC}
  ,                                       !- Delta Temperature Schedule Name
  22,                                     !- Minimum Outdoor Temperature {C}
  ,                                       !- Minimum Outdoor Temperature Schedule Name
  26,                                     !- Maximum Outdoor Temperature {C}
  ,                                       !- Maximum Outdoor Temperature Schedule Name
  40;                                     !- Maximum Wind Speed {m/s}

ZoneVentilation:WindandStackOpenArea,
  Aperture_9a46b582_Opening,              !- Name
  Room_1412_6e864ed8,                     !- Zone or Space Name
  3.248,                                  !- Opening Area {m2}
  Always On Discrete,                     !- Opening Area Fraction Schedule Name
  Autocalculate,                          !- Opening Effectiveness {dimensionless}
  90,                                     !- Effective Angle {deg}
  0.875,                                  !- Height Difference {m}
  0.45,                                   !- Discharge Coefficient for Opening
  -100,                                   !- Minimum Indoor Temperature {C}
  ,                                       !- Minimum Indoor Temperature Schedule Name
  100,                                    !- Maximum Indoor Temperature {C}
  ,                                       !- Maximum Indoor Temperature Schedule Name
  -100,                                   !- Delta Temperature {deltaC}
  ,                                       !- Delta Temperature Schedule Name
  22,                                     !- Minimum Outdoor Temperature {C}
  ,                                       !- Minimum Outdoor Temperature Schedule Name
  26,                                     !- Maximum Outdoor Temperature {C}
  ,                                       !- Maximum Outdoor Temperature Schedule Name
  40;                                     !- Maximum Wind Speed {m/s}

ZoneVentilation:WindandStackOpenArea,
  Aperture_5dc5fd59_Opening,              !- Name
  Room_1412_6e864ed8,                     !- Zone or Space Name
  5.39000000000001,                       !- Opening Area {m2}
  Always On Discrete,                     !- Opening Area Fraction Schedule Name
  Autocalculate,                          !- Opening Effectiveness {dimensionless}
  0,                                      !- Effective Angle {deg}
  0.875,                                  !- Height Difference {m}
  0.45,                                   !- Discharge Coefficient for Opening
  -100,                                   !- Minimum Indoor Temperature {C}
  ,                                       !- Minimum Indoor Temperature Schedule Name
  100,                                    !- Maximum Indoor Temperature {C}
  ,                                       !- Maximum Indoor Temperature Schedule Name
  -100,                                   !- Delta Temperature {deltaC}
  ,                                       !- Delta Temperature Schedule Name
  22,                                     !- Minimum Outdoor Temperature {C}
  ,                                       !- Minimum Outdoor Temperature Schedule Name
  26,                                     !- Maximum Outdoor Temperature {C}
  ,                                       !- Maximum Outdoor Temperature Schedule Name
  40;                                     !- Maximum Wind Speed {m/s}

ZoneVentilation:WindandStackOpenArea,
  Aperture_2d5d4b04_Opening,              !- Name
  Room_1412_6e864ed8,                     !- Zone or Space Name
  11.69,                                  !- Opening Area {m2}
  Always On Discrete,                     !- Opening Area Fraction Schedule Name
  Autocalculate,                          !- Opening Effectiveness {dimensionless}
  0,                                      !- Effective Angle {deg}
  0.875,                                  !- Height Difference {m}
  0.45,                                   !- Discharge Coefficient for Opening
  -100,                                   !- Minimum Indoor Temperature {C}
  ,                                       !- Minimum Indoor Temperature Schedule Name
  100,                                    !- Maximum Indoor Temperature {C}
  ,                                       !- Maximum Indoor Temperature Schedule Name
  -100,                                   !- Delta Temperature {deltaC}
  ,                                       !- Delta Temperature Schedule Name
  22,                                     !- Minimum Outdoor Temperature {C}
  ,                                       !- Minimum Outdoor Temperature Schedule Name
  26,                                     !- Maximum Outdoor Temperature {C}
  ,                                       !- Maximum Outdoor Temperature Schedule Name
  40;                                     !- Maximum Wind Speed {m/s}

ZoneHVAC:EquipmentConnections,
  Room_1412_6e864ed8,                     !- Zone Name
  Room_1412_6e864ed8 Equipment List,      !- Zone Conditioning Equipment List Name
  Room_1412_6e864ed8 Inlet Node List,     !- Zone Air Inlet Node or NodeList Name
  Room_1412_6e864ed8 Exhaust Node List,   !- Zone Air Exhaust Node or NodeList Name
  Node 4;                                 !- Zone Air Node Name

NodeList,
  Room_1412_6e864ed8 Inlet Node List,     !- Name
  Node 25;                                !- Node Name 1

NodeList,
  Room_1412_6e864ed8 Exhaust Node List,   !- Name
  Node 24;                                !- Node Name 1

ZoneHVAC:IdealLoadsAirSystem,
  Room_1412_6e864ed8 Ideal Loads Air System, !- Name
  ,                                       !- Availability Schedule Name
  Node 25,                                !- Zone Supply Air Node Name
  Node 24,                                !- Zone Exhaust Air Node Name
  ,                                       !- System Inlet Air Node Name
  50,                                     !- Maximum Heating Supply Air Temperature {C}
  13,                                     !- Minimum Cooling Supply Air Temperature {C}
  ,                                       !- Maximum Heating Supply Air Humidity Ratio {kgWater/kgDryAir}
  ,                                       !- Minimum Cooling Supply Air Humidity Ratio {kgWater/kgDryAir}
  LimitCapacity,                          !- Heating Limit
  ,                                       !- Maximum Heating Air Flow Rate {m3/s}
  Autosize,                               !- Maximum Sensible Heating Capacity {W}
  LimitFlowRateAndCapacity,               !- Cooling Limit
  Autosize,                               !- Maximum Cooling Air Flow Rate {m3/s}
  Autosize,                               !- Maximum Total Cooling Capacity {W}
  WeeklySchedule_2856ceac,                !- Heating Availability Schedule Name
  WeeklySchedule_2856ceac,                !- Cooling Availability Schedule Name
  None,                                   !- Dehumidification Control Type
  ,                                       !- Cooling Sensible Heat Ratio {dimensionless}
  ,                                       !- Humidification Control Type
  Ventilation_b96face6,                   !- Design Specification Outdoor Air Object Name
  ,                                       !- Outdoor Air Inlet Node Name
  None,                                   !- Demand Controlled Ventilation Type
  DifferentialDryBulb,                    !- Outdoor Air Economizer Type
  ,                                       !- Heat Recovery Type
  0,                                      !- Sensible Heat Recovery Effectiveness {dimensionless}
  0;                                      !- Latent Heat Recovery Effectiveness {dimensionless}

ZoneHVAC:EquipmentList,
  Room_1412_6e864ed8 Equipment List,      !- Name
  SequentialLoad,                         !- Load Distribution Scheme
  ZoneHVAC:IdealLoadsAirSystem,           !- Zone Equipment Object Type 1
  Room_1412_6e864ed8 Ideal Loads Air System, !- Zone Equipment Name 1
  1,                                      !- Zone Equipment Cooling Sequence 1
  1,                                      !- Zone Equipment Heating or No-Load Sequence 1
  ,                                       !- Zone Equipment Sequential Cooling Fraction Schedule Name 1
  ;                                       !- Zone Equipment Sequential Heating Fraction Schedule Name 1

Sizing:Zone,
  Room_1412_6e864ed8,                     !- Zone or ZoneList Name
  SupplyAirTemperature,                   !- Zone Cooling Design Supply Air Temperature Input Method
  14,                                     !- Zone Cooling Design Supply Air Temperature {C}
  11.11,                                  !- Zone Cooling Design Supply Air Temperature Difference {deltaC}
  SupplyAirTemperature,                   !- Zone Heating Design Supply Air Temperature Input Method
  40,                                     !- Zone Heating Design Supply Air Temperature {C}
  11.11,                                  !- Zone Heating Design Supply Air Temperature Difference {deltaC}
  0.0085,                                 !- Zone Cooling Design Supply Air Humidity Ratio {kgWater/kgDryAir}
  0.008,                                  !- Zone Heating Design Supply Air Humidity Ratio {kgWater/kgDryAir}
  Room_1412_6e864ed8 DSOA Space List,     !- Design Specification Outdoor Air Object Name
  ,                                       !- Zone Heating Sizing Factor
  ,                                       !- Zone Cooling Sizing Factor
  DesignDay,                              !- Cooling Design Air Flow Method
  0,                                      !- Cooling Design Air Flow Rate {m3/s}
  0.000762,                               !- Cooling Minimum Air Flow per Zone Floor Area {m3/s-m2}
  0,                                      !- Cooling Minimum Air Flow {m3/s}
  0,                                      !- Cooling Minimum Air Flow Fraction
  DesignDay,                              !- Heating Design Air Flow Method
  0,                                      !- Heating Design Air Flow Rate {m3/s}
  0.002032,                               !- Heating Maximum Air Flow per Zone Floor Area {m3/s-m2}
  0.1415762,                              !- Heating Maximum Air Flow {m3/s}
  0.3,                                    !- Heating Maximum Air Flow Fraction
  ,                                       !- Design Specification Zone Air Distribution Object Name
  No,                                     !- Account for Dedicated Outdoor Air System
  ,                                       !- Dedicated Outdoor Air System Control Strategy
  ,                                       !- Dedicated Outdoor Air Low Setpoint Temperature for Design {C}
  ,                                       !- Dedicated Outdoor Air High Setpoint Temperature for Design {C}
  Sensible Load Only No Latent Load,      !- Zone Load Sizing Method
  HumidityRatioDifference,                !- Zone Latent Cooling Design Supply Air Humidity Ratio Input Method
  ,                                       !- Zone Dehumidification Design Supply Air Humidity Ratio {kgWater/kgDryAir}
  0.005,                                  !- Zone Cooling Design Supply Air Humidity Ratio Difference {kgWater/kgDryAir}
  HumidityRatioDifference,                !- Zone Latent Heating Design Supply Air Humidity Ratio Input Method
  ,                                       !- Zone Humidification Design Supply Air Humidity Ratio {kgWater/kgDryAir}
  0.005;                                  !- Zone Humidification Design Supply Air Humidity Ratio Difference {kgWater/kgDryAir}

DesignSpecification:OutdoorAir:SpaceList,
  Room_1412_6e864ed8 DSOA Space List,     !- Name
  Room_1412_6e864ed8_Space,               !- Space Name 1
  Ventilation_b96face6;                   !- Space Design Specification Outdoor Air Object Name 1

Zone,
  Room_1413_b054cecc,                     !- Name
  ,                                       !- Direction of Relative North {deg}
  0,                                      !- X Origin {m}
  0,                                      !- Y Origin {m}
  0,                                      !- Z Origin {m}
  ,                                       !- Type
  1,                                      !- Multiplier
  4.5,                                    !- Ceiling Height {m}
  5129.82719999999,                       !- Volume {m3}
  ,                                       !- Floor Area {m2}
  ,                                       !- Zone Inside Convection Algorithm
  ,                                       !- Zone Outside Convection Algorithm
  Yes;                                    !- Part of Total Floor Area

Space,
  Room_1413_b054cecc_Space,               !- Name
  Room_1413_b054cecc,                     !- Zone Name
  ,                                       !- Ceiling Height {m}
  ,                                       !- Volume {m3}
  ,                                       !- Floor Area {m2}
  ProgramType_f9e2e425;                   !- Space Type

BuildingSurface:Detailed,
  Room_1413_b054cecc..Face0,              !- Name
  Floor,                                  !- Surface Type
  OpaqueConstruction_47cf3687,            !- Construction Name
  Room_1413_b054cecc,                     !- Zone Name
  Room_1413_b054cecc_Space,               !- Space Name
  Surface,                                !- Outside Boundary Condition
  Room_1411_b0c8040d..Face1,              !- Outside Boundary Condition Object
  NoSun,                                  !- Sun Exposure
  NoWind,                                 !- Wind Exposure
  ,                                       !- View Factor to Ground
  ,                                       !- Number of Vertices
  52.776, 64.8, 9,                        !- X,Y,Z Vertex 1 {m}
  52.776, 43.2, 9,                        !- X,Y,Z Vertex 2 {m}
  8.32667268468867e-16, 43.2, 9,          !- X,Y,Z Vertex 3 {m}
  3.88578058618805e-15, 64.8, 9;          !- X,Y,Z Vertex 4 {m}

BuildingSurface:Detailed,
  Room_1413_b054cecc..Face1,              !- Name
  Roof,                                   !- Surface Type
  OpaqueConstruction_47cf3687,            !- Construction Name
  Room_1413_b054cecc,                     !- Zone Name
  Room_1413_b054cecc_Space,               !- Space Name
  Outdoors,                               !- Outside Boundary Condition
  ,                                       !- Outside Boundary Condition Object
  SunExposed,                             !- Sun Exposure
  WindExposed,                            !- Wind Exposure
  ,                                       !- View Factor to Ground
  ,                                       !- Number of Vertices
  3.88578058618805e-15, 64.8, 13.5,       !- X,Y,Z Vertex 1 {m}
  8.32667268468867e-16, 43.2, 13.5,       !- X,Y,Z Vertex 2 {m}
  52.776, 43.2, 13.5,                     !- X,Y,Z Vertex 3 {m}
  52.776, 64.8, 13.5;                     !- X,Y,Z Vertex 4 {m}

BuildingSurface:Detailed,
  Room_1413_b054cecc..Face2,              !- Name
  Wall,                                   !- Surface Type
  OpaqueConstruction_47cf3687,            !- Construction Name
  Room_1413_b054cecc,                     !- Zone Name
  Room_1413_b054cecc_Space,               !- Space Name
  Outdoors,                               !- Outside Boundary Condition
  ,                                       !- Outside Boundary Condition Object
  SunExposed,                             !- Sun Exposure
  WindExposed,                            !- Wind Exposure
  ,                                       !- View Factor to Ground
  ,                                       !- Number of Vertices
  36, 43.2, 13.5,                         !- X,Y,Z Vertex 1 {m}
  36, 43.2, 9,                            !- X,Y,Z Vertex 2 {m}
  52.776, 43.2, 9,                        !- X,Y,Z Vertex 3 {m}
  52.776, 43.2, 13.5;                     !- X,Y,Z Vertex 4 {m}

FenestrationSurface:Detailed,
  Aperture_1477af76,                      !- Name
  Window,                                 !- Surface Type
  WindowConstruction_1dfe9b5d,            !- Construction Name
  Room_1413_b054cecc..Face2,              !- Building Surface Name
  ,                                       !- Outside Boundary Condition Object
  ,                                       !- View Factor to Ground
  ,                                       !- Frame and Divider Name
  ,                                       !- Multiplier
  ,                                       !- Number of Vertices
  36.26, 43.2, 12.6,                      !- X,Y,Z Vertex 1 {m}
  36.26, 43.2, 9.1,                       !- X,Y,Z Vertex 2 {m}
  42.94, 43.2, 9.1,                       !- X,Y,Z Vertex 3 {m}
  42.94, 43.2, 12.6;                      !- X,Y,Z Vertex 4 {m}

FenestrationSurface:Detailed,
  Aperture_e3fde880,                      !- Name
  Window,                                 !- Surface Type
  WindowConstruction_1dfe9b5d,            !- Construction Name
  Room_1413_b054cecc..Face2,              !- Building Surface Name
  ,                                       !- Outside Boundary Condition Object
  ,                                       !- View Factor to Ground
  ,                                       !- Frame and Divider Name
  ,                                       !- Multiplier
  ,                                       !- Number of Vertices
  43.46, 43.2, 12.6,                      !- X,Y,Z Vertex 1 {m}
  43.46, 43.2, 9.1,                       !- X,Y,Z Vertex 2 {m}
  50.14, 43.2, 9.1,                       !- X,Y,Z Vertex 3 {m}
  50.14, 43.2, 12.6;                      !- X,Y,Z Vertex 4 {m}

FenestrationSurface:Detailed,
  Aperture_e7af2f01,                      !- Name
  Window,                                 !- Surface Type
  WindowConstruction_1dfe9b5d,            !- Construction Name
  Room_1413_b054cecc..Face2,              !- Building Surface Name
  ,                                       !- Outside Boundary Condition Object
  ,                                       !- View Factor to Ground
  ,                                       !- Frame and Divider Name
  ,                                       !- Multiplier
  ,                                       !- Number of Vertices
  50.66, 43.2, 12.6,                      !- X,Y,Z Vertex 1 {m}
  50.66, 43.2, 9.1,                       !- X,Y,Z Vertex 2 {m}
  52.516, 43.2, 9.1,                      !- X,Y,Z Vertex 3 {m}
  52.516, 43.2, 12.6;                     !- X,Y,Z Vertex 4 {m}

BuildingSurface:Detailed,
  Room_1413_b054cecc..Face3,              !- Name
  Wall,                                   !- Surface Type
  OpaqueConstruction_47cf3687,            !- Construction Name
  Room_1413_b054cecc,                     !- Zone Name
  Room_1413_b054cecc_Space,               !- Space Name
  Outdoors,                               !- Outside Boundary Condition
  ,                                       !- Outside Boundary Condition Object
  SunExposed,                             !- Sun Exposure
  WindExposed,                            !- Wind Exposure
  ,                                       !- View Factor to Ground
  ,                                       !- Number of Vertices
  8.32667268468867e-16, 43.2, 13.5,       !- X,Y,Z Vertex 1 {m}
  8.32667268468867e-16, 43.2, 9,          !- X,Y,Z Vertex 2 {m}
  14.4, 43.2, 9,                          !- X,Y,Z Vertex 3 {m}
  14.4, 43.2, 13.5;                       !- X,Y,Z Vertex 4 {m}

FenestrationSurface:Detailed,
  Aperture_9196186b,                      !- Name
  Window,                                 !- Surface Type
  WindowConstruction_1dfe9b5d,            !- Construction Name
  Room_1413_b054cecc..Face3,              !- Building Surface Name
  ,                                       !- Outside Boundary Condition Object
  ,                                       !- View Factor to Ground
  ,                                       !- Frame and Divider Name
  ,                                       !- Multiplier
  ,                                       !- Number of Vertices
  0.259999999999999, 43.2, 12.6,          !- X,Y,Z Vertex 1 {m}
  0.259999999999999, 43.2, 9.1,           !- X,Y,Z Vertex 2 {m}
  6.94, 43.2, 9.1,                        !- X,Y,Z Vertex 3 {m}
  6.94, 43.2, 12.6;                       !- X,Y,Z Vertex 4 {m}

FenestrationSurface:Detailed,
  Aperture_c7fca6f3,                      !- Name
  Window,                                 !- Surface Type
  WindowConstruction_1dfe9b5d,            !- Construction Name
  Room_1413_b054cecc..Face3,              !- Building Surface Name
  ,                                       !- Outside Boundary Condition Object
  ,                                       !- View Factor to Ground
  ,                                       !- Frame and Divider Name
  ,                                       !- Multiplier
  ,                                       !- Number of Vertices
  7.46, 43.2, 12.6,                       !- X,Y,Z Vertex 1 {m}
  7.46, 43.2, 9.1,                        !- X,Y,Z Vertex 2 {m}
  14.14, 43.2, 9.1,                       !- X,Y,Z Vertex 3 {m}
  14.14, 43.2, 12.6;                      !- X,Y,Z Vertex 4 {m}

BuildingSurface:Detailed,
  Room_1413_b054cecc..Face4,              !- Name
  Wall,                                   !- Surface Type
  OpaqueConstruction_47cf3687,            !- Construction Name
  Room_1413_b054cecc,                     !- Zone Name
  Room_1413_b054cecc_Space,               !- Space Name
  Outdoors,                               !- Outside Boundary Condition
  ,                                       !- Outside Boundary Condition Object
  SunExposed,                             !- Sun Exposure
  WindExposed,                            !- Wind Exposure
  ,                                       !- View Factor to Ground
  ,                                       !- Number of Vertices
  52.776, 64.8, 13.5,                     !- X,Y,Z Vertex 1 {m}
  52.776, 64.8, 9,                        !- X,Y,Z Vertex 2 {m}
  3.88578058618805e-15, 64.8, 9,          !- X,Y,Z Vertex 3 {m}
  3.88578058618805e-15, 64.8, 13.5;       !- X,Y,Z Vertex 4 {m}

FenestrationSurface:Detailed,
  Aperture_061ba8bb,                      !- Name
  Window,                                 !- Surface Type
  WindowConstruction_1dfe9b5d,            !- Construction Name
  Room_1413_b054cecc..Face4,              !- Building Surface Name
  ,                                       !- Outside Boundary Condition Object
  ,                                       !- View Factor to Ground
  ,                                       !- Frame and Divider Name
  ,                                       !- Multiplier
  ,                                       !- Number of Vertices
  14.14, 64.8, 12.6,                      !- X,Y,Z Vertex 1 {m}
  14.14, 64.8, 9.1,                       !- X,Y,Z Vertex 2 {m}
  7.46, 64.8, 9.1,                        !- X,Y,Z Vertex 3 {m}
  7.46, 64.8, 12.6;                       !- X,Y,Z Vertex 4 {m}

FenestrationSurface:Detailed,
  Aperture_4f7d4bd1,                      !- Name
  Window,                                 !- Surface Type
  WindowConstruction_1dfe9b5d,            !- Construction Name
  Room_1413_b054cecc..Face4,              !- Building Surface Name
  ,                                       !- Outside Boundary Condition Object
  ,                                       !- View Factor to Ground
  ,                                       !- Frame and Divider Name
  ,                                       !- Multiplier
  ,                                       !- Number of Vertices
  35.74, 64.8, 12.6,                      !- X,Y,Z Vertex 1 {m}
  35.74, 64.8, 9.1,                       !- X,Y,Z Vertex 2 {m}
  29.06, 64.8, 9.1,                       !- X,Y,Z Vertex 3 {m}
  29.06, 64.8, 12.6;                      !- X,Y,Z Vertex 4 {m}

FenestrationSurface:Detailed,
  Aperture_5ea63e00,                      !- Name
  Window,                                 !- Surface Type
  WindowConstruction_1dfe9b5d,            !- Construction Name
  Room_1413_b054cecc..Face4,              !- Building Surface Name
  ,                                       !- Outside Boundary Condition Object
  ,                                       !- View Factor to Ground
  ,                                       !- Frame and Divider Name
  ,                                       !- Multiplier
  ,                                       !- Number of Vertices
  21.34, 64.8, 12.6,                      !- X,Y,Z Vertex 1 {m}
  21.34, 64.8, 9.1,                       !- X,Y,Z Vertex 2 {m}
  14.66, 64.8, 9.1,                       !- X,Y,Z Vertex 3 {m}
  14.66, 64.8, 12.6;                      !- X,Y,Z Vertex 4 {m}

FenestrationSurface:Detailed,
  Aperture_69a68e73,                      !- Name
  Window,                                 !- Surface Type
  WindowConstruction_1dfe9b5d,            !- Construction Name
  Room_1413_b054cecc..Face4,              !- Building Surface Name
  ,                                       !- Outside Boundary Condition Object
  ,                                       !- View Factor to Ground
  ,                                       !- Frame and Divider Name
  ,                                       !- Multiplier
  ,                                       !- Number of Vertices
  6.94, 64.8, 12.6,                       !- X,Y,Z Vertex 1 {m}
  6.94, 64.8, 9.1,                        !- X,Y,Z Vertex 2 {m}
  0.260000000000003, 64.8, 9.1,           !- X,Y,Z Vertex 3 {m}
  0.260000000000003, 64.8, 12.6;          !- X,Y,Z Vertex 4 {m}

FenestrationSurface:Detailed,
  Aperture_726a3117,                      !- Name
  Window,                                 !- Surface Type
  WindowConstruction_1dfe9b5d,            !- Construction Name
  Room_1413_b054cecc..Face4,              !- Building Surface Name
  ,                                       !- Outside Boundary Condition Object
  ,                                       !- View Factor to Ground
  ,                                       !- Frame and Divider Name
  ,                                       !- Multiplier
  ,                                       !- Number of Vertices
  28.54, 64.8, 12.6,                      !- X,Y,Z Vertex 1 {m}
  28.54, 64.8, 9.1,                       !- X,Y,Z Vertex 2 {m}
  21.86, 64.8, 9.1,                       !- X,Y,Z Vertex 3 {m}
  21.86, 64.8, 12.6;                      !- X,Y,Z Vertex 4 {m}

FenestrationSurface:Detailed,
  Aperture_9a137886,                      !- Name
  Window,                                 !- Surface Type
  WindowConstruction_1dfe9b5d,            !- Construction Name
  Room_1413_b054cecc..Face4,              !- Building Surface Name
  ,                                       !- Outside Boundary Condition Object
  ,                                       !- View Factor to Ground
  ,                                       !- Frame and Divider Name
  ,                                       !- Multiplier
  ,                                       !- Number of Vertices
  52.516, 64.8, 12.6,                     !- X,Y,Z Vertex 1 {m}
  52.516, 64.8, 9.1,                      !- X,Y,Z Vertex 2 {m}
  50.66, 64.8, 9.1,                       !- X,Y,Z Vertex 3 {m}
  50.66, 64.8, 12.6;                      !- X,Y,Z Vertex 4 {m}

FenestrationSurface:Detailed,
  Aperture_c6d75666,                      !- Name
  Window,                                 !- Surface Type
  WindowConstruction_1dfe9b5d,            !- Construction Name
  Room_1413_b054cecc..Face4,              !- Building Surface Name
  ,                                       !- Outside Boundary Condition Object
  ,                                       !- View Factor to Ground
  ,                                       !- Frame and Divider Name
  ,                                       !- Multiplier
  ,                                       !- Number of Vertices
  42.94, 64.8, 12.6,                      !- X,Y,Z Vertex 1 {m}
  42.94, 64.8, 9.1,                       !- X,Y,Z Vertex 2 {m}
  36.26, 64.8, 9.1,                       !- X,Y,Z Vertex 3 {m}
  36.26, 64.8, 12.6;                      !- X,Y,Z Vertex 4 {m}

FenestrationSurface:Detailed,
  Aperture_da24cdca,                      !- Name
  Window,                                 !- Surface Type
  WindowConstruction_1dfe9b5d,            !- Construction Name
  Room_1413_b054cecc..Face4,              !- Building Surface Name
  ,                                       !- Outside Boundary Condition Object
  ,                                       !- View Factor to Ground
  ,                                       !- Frame and Divider Name
  ,                                       !- Multiplier
  ,                                       !- Number of Vertices
  50.14, 64.8, 12.6,                      !- X,Y,Z Vertex 1 {m}
  50.14, 64.8, 9.1,                       !- X,Y,Z Vertex 2 {m}
  43.46, 64.8, 9.1,                       !- X,Y,Z Vertex 3 {m}
  43.46, 64.8, 12.6;                      !- X,Y,Z Vertex 4 {m}

BuildingSurface:Detailed,
  Room_1413_b054cecc..Face5,              !- Name
  Wall,                                   !- Surface Type
  OpaqueConstruction_47cf3687,            !- Construction Name
  Room_1413_b054cecc,                     !- Zone Name
  Room_1413_b054cecc_Space,               !- Space Name
  Outdoors,                               !- Outside Boundary Condition
  ,                                       !- Outside Boundary Condition Object
  SunExposed,                             !- Sun Exposure
  WindExposed,                            !- Wind Exposure
  ,                                       !- View Factor to Ground
  ,                                       !- Number of Vertices
  3.88578058618805e-15, 64.8, 13.5,       !- X,Y,Z Vertex 1 {m}
  3.88578058618805e-15, 64.8, 9,          !- X,Y,Z Vertex 2 {m}
  8.32667268468867e-16, 43.2, 9,          !- X,Y,Z Vertex 3 {m}
  8.32667268468867e-16, 43.2, 13.5;       !- X,Y,Z Vertex 4 {m}

FenestrationSurface:Detailed,
  Aperture_561b6582,                      !- Name
  Window,                                 !- Surface Type
  WindowConstruction_1dfe9b5d,            !- Construction Name
  Room_1413_b054cecc..Face5,              !- Building Surface Name
  ,                                       !- Outside Boundary Condition Object
  ,                                       !- View Factor to Ground
  ,                                       !- Frame and Divider Name
  ,                                       !- Multiplier
  ,                                       !- Number of Vertices
  1.6571363622883e-15, 57.34, 12.6,       !- X,Y,Z Vertex 1 {m}
  1.6571363622883e-15, 57.34, 9.1,        !- X,Y,Z Vertex 2 {m}
  2.57998355190092e-16, 50.66, 9.1,       !- X,Y,Z Vertex 3 {m}
  2.57998355190092e-16, 50.66, 12.6;      !- X,Y,Z Vertex 4 {m}

FenestrationSurface:Detailed,
  Aperture_7a88443b,                      !- Name
  Window,                                 !- Surface Type
  WindowConstruction_1dfe9b5d,            !- Construction Name
  Room_1413_b054cecc..Face5,              !- Building Surface Name
  ,                                       !- Outside Boundary Condition Object
  ,                                       !- View Factor to Ground
  ,                                       !- Frame and Divider Name
  ,                                       !- Multiplier
  ,                                       !- Number of Vertices
  3.16518930407081e-15, 64.54, 12.6,      !- X,Y,Z Vertex 1 {m}
  3.16518930407081e-15, 64.54, 9.1,       !- X,Y,Z Vertex 2 {m}
  1.7660512969726e-15, 57.86, 9.1,        !- X,Y,Z Vertex 3 {m}
  1.7660512969726e-15, 57.86, 12.6;       !- X,Y,Z Vertex 4 {m}

FenestrationSurface:Detailed,
  Aperture_b4d47ed9,                      !- Name
  Window,                                 !- Surface Type
  WindowConstruction_1dfe9b5d,            !- Construction Name
  Room_1413_b054cecc..Face5,              !- Building Surface Name
  ,                                       !- Outside Boundary Condition Object
  ,                                       !- View Factor to Ground
  ,                                       !- Frame and Divider Name
  ,                                       !- Multiplier
  ,                                       !- Number of Vertices
  1.49083420505801e-16, 50.14, 12.6,      !- X,Y,Z Vertex 1 {m}
  1.49083420505801e-16, 50.14, 9.1,       !- X,Y,Z Vertex 2 {m}
  -1.25005458659241e-15, 43.46, 9.1,      !- X,Y,Z Vertex 3 {m}
  -1.25005458659241e-15, 43.46, 12.6;     !- X,Y,Z Vertex 4 {m}

BuildingSurface:Detailed,
  Room_1413_b054cecc..Face6,              !- Name
  Wall,                                   !- Surface Type
  OpaqueConstruction_47cf3687,            !- Construction Name
  Room_1413_b054cecc,                     !- Zone Name
  Room_1413_b054cecc_Space,               !- Space Name
  Outdoors,                               !- Outside Boundary Condition
  ,                                       !- Outside Boundary Condition Object
  SunExposed,                             !- Sun Exposure
  WindExposed,                            !- Wind Exposure
  ,                                       !- View Factor to Ground
  ,                                       !- Number of Vertices
  52.776, 43.2, 13.5,                     !- X,Y,Z Vertex 1 {m}
  52.776, 43.2, 9,                        !- X,Y,Z Vertex 2 {m}
  52.776, 64.8, 9,                        !- X,Y,Z Vertex 3 {m}
  52.776, 64.8, 13.5;                     !- X,Y,Z Vertex 4 {m}

FenestrationSurface:Detailed,
  Aperture_a0f03aa4,                      !- Name
  Window,                                 !- Surface Type
  WindowConstruction_1dfe9b5d,            !- Construction Name
  Room_1413_b054cecc..Face6,              !- Building Surface Name
  ,                                       !- Outside Boundary Condition Object
  ,                                       !- View Factor to Ground
  ,                                       !- Frame and Divider Name
  ,                                       !- Multiplier
  ,                                       !- Number of Vertices
  52.776, 43.46, 12.6,                    !- X,Y,Z Vertex 1 {m}
  52.776, 43.46, 9.1,                     !- X,Y,Z Vertex 2 {m}
  52.776, 50.14, 9.1,                     !- X,Y,Z Vertex 3 {m}
  52.776, 50.14, 12.6;                    !- X,Y,Z Vertex 4 {m}

FenestrationSurface:Detailed,
  Aperture_b31eefc8,                      !- Name
  Window,                                 !- Surface Type
  WindowConstruction_1dfe9b5d,            !- Construction Name
  Room_1413_b054cecc..Face6,              !- Building Surface Name
  ,                                       !- Outside Boundary Condition Object
  ,                                       !- View Factor to Ground
  ,                                       !- Frame and Divider Name
  ,                                       !- Multiplier
  ,                                       !- Number of Vertices
  52.776, 57.86, 12.6,                    !- X,Y,Z Vertex 1 {m}
  52.776, 57.86, 9.1,                     !- X,Y,Z Vertex 2 {m}
  52.776, 64.54, 9.1,                     !- X,Y,Z Vertex 3 {m}
  52.776, 64.54, 12.6;                    !- X,Y,Z Vertex 4 {m}

FenestrationSurface:Detailed,
  Aperture_ce65421b,                      !- Name
  Window,                                 !- Surface Type
  WindowConstruction_1dfe9b5d,            !- Construction Name
  Room_1413_b054cecc..Face6,              !- Building Surface Name
  ,                                       !- Outside Boundary Condition Object
  ,                                       !- View Factor to Ground
  ,                                       !- Frame and Divider Name
  ,                                       !- Multiplier
  ,                                       !- Number of Vertices
  52.776, 50.66, 12.6,                    !- X,Y,Z Vertex 1 {m}
  52.776, 50.66, 9.1,                     !- X,Y,Z Vertex 2 {m}
  52.776, 57.34, 9.1,                     !- X,Y,Z Vertex 3 {m}
  52.776, 57.34, 12.6;                    !- X,Y,Z Vertex 4 {m}

BuildingSurface:Detailed,
  Room_1413_b054cecc..Face7,              !- Name
  Wall,                                   !- Surface Type
  OpaqueConstruction_47cf3687,            !- Construction Name
  Room_1413_b054cecc,                     !- Zone Name
  Room_1413_b054cecc_Space,               !- Space Name
  Surface,                                !- Outside Boundary Condition
  Room_1420_b9536d43..Face3,              !- Outside Boundary Condition Object
  NoSun,                                  !- Sun Exposure
  NoWind,                                 !- Wind Exposure
  ,                                       !- View Factor to Ground
  ,                                       !- Number of Vertices
  14.4, 43.2, 13.5,                       !- X,Y,Z Vertex 1 {m}
  14.4, 43.2, 9,                          !- X,Y,Z Vertex 2 {m}
  36, 43.2, 9,                            !- X,Y,Z Vertex 3 {m}
  36, 43.2, 13.5;                         !- X,Y,Z Vertex 4 {m}

FenestrationSurface:Detailed,
  Ajd_Aperture_194c9629,                  !- Name
  Window,                                 !- Surface Type
  WindowConstruction_1dfe9b5d,            !- Construction Name
  Room_1413_b054cecc..Face7,              !- Building Surface Name
  Aperture_194c9629,                      !- Outside Boundary Condition Object
  ,                                       !- View Factor to Ground
  ,                                       !- Frame and Divider Name
  ,                                       !- Multiplier
  ,                                       !- Number of Vertices
  21.7, 43.2, 11.3,                       !- X,Y,Z Vertex 1 {m}
  21.7, 43.2, 9.2,                        !- X,Y,Z Vertex 2 {m}
  22.6, 43.2, 9.2,                        !- X,Y,Z Vertex 3 {m}
  22.6, 43.2, 11.3;                       !- X,Y,Z Vertex 4 {m}

FenestrationSurface:Detailed,
  Ajd_Aperture_1c4d0efe,                  !- Name
  Window,                                 !- Surface Type
  WindowConstruction_1dfe9b5d,            !- Construction Name
  Room_1413_b054cecc..Face7,              !- Building Surface Name
  Aperture_1c4d0efe,                      !- Outside Boundary Condition Object
  ,                                       !- View Factor to Ground
  ,                                       !- Frame and Divider Name
  ,                                       !- Multiplier
  ,                                       !- Number of Vertices
  20.7, 43.2, 11.3,                       !- X,Y,Z Vertex 1 {m}
  20.7, 43.2, 9.2,                        !- X,Y,Z Vertex 2 {m}
  21.5, 43.2, 9.2,                        !- X,Y,Z Vertex 3 {m}
  21.5, 43.2, 11.3;                       !- X,Y,Z Vertex 4 {m}

FenestrationSurface:Detailed,
  Ajd_Aperture_2279dfad,                  !- Name
  Window,                                 !- Surface Type
  WindowConstruction_1dfe9b5d,            !- Construction Name
  Room_1413_b054cecc..Face7,              !- Building Surface Name
  Aperture_2279dfad,                      !- Outside Boundary Condition Object
  ,                                       !- View Factor to Ground
  ,                                       !- Frame and Divider Name
  ,                                       !- Multiplier
  ,                                       !- Number of Vertices
  27.9, 43.2, 11.3,                       !- X,Y,Z Vertex 1 {m}
  27.9, 43.2, 9.2,                        !- X,Y,Z Vertex 2 {m}
  28.7, 43.2, 9.2,                        !- X,Y,Z Vertex 3 {m}
  28.7, 43.2, 11.3;                       !- X,Y,Z Vertex 4 {m}

FenestrationSurface:Detailed,
  Ajd_Aperture_84a7ebe1,                  !- Name
  Window,                                 !- Surface Type
  WindowConstruction_1dfe9b5d,            !- Construction Name
  Room_1413_b054cecc..Face7,              !- Building Surface Name
  Aperture_84a7ebe1,                      !- Outside Boundary Condition Object
  ,                                       !- View Factor to Ground
  ,                                       !- Frame and Divider Name
  ,                                       !- Multiplier
  ,                                       !- Number of Vertices
  14.5, 43.2, 11.3,                       !- X,Y,Z Vertex 1 {m}
  14.5, 43.2, 9.2,                        !- X,Y,Z Vertex 2 {m}
  15.4, 43.2, 9.2,                        !- X,Y,Z Vertex 3 {m}
  15.4, 43.2, 11.3;                       !- X,Y,Z Vertex 4 {m}

FenestrationSurface:Detailed,
  Ajd_Aperture_aac0078e,                  !- Name
  Window,                                 !- Surface Type
  WindowConstruction_1dfe9b5d,            !- Construction Name
  Room_1413_b054cecc..Face7,              !- Building Surface Name
  Aperture_aac0078e,                      !- Outside Boundary Condition Object
  ,                                       !- View Factor to Ground
  ,                                       !- Frame and Divider Name
  ,                                       !- Multiplier
  ,                                       !- Number of Vertices
  28.9, 43.2, 11.3,                       !- X,Y,Z Vertex 1 {m}
  28.9, 43.2, 9.2,                        !- X,Y,Z Vertex 2 {m}
  29.8, 43.2, 9.2,                        !- X,Y,Z Vertex 3 {m}
  29.8, 43.2, 11.3;                       !- X,Y,Z Vertex 4 {m}

FenestrationSurface:Detailed,
  Ajd_Aperture_b38096f3,                  !- Name
  Window,                                 !- Surface Type
  WindowConstruction_1dfe9b5d,            !- Construction Name
  Room_1413_b054cecc..Face7,              !- Building Surface Name
  Aperture_b38096f3,                      !- Outside Boundary Condition Object
  ,                                       !- View Factor to Ground
  ,                                       !- Frame and Divider Name
  ,                                       !- Multiplier
  ,                                       !- Number of Vertices
  35.1, 43.2, 11.3,                       !- X,Y,Z Vertex 1 {m}
  35.1, 43.2, 9.2,                        !- X,Y,Z Vertex 2 {m}
  35.9, 43.2, 9.2,                        !- X,Y,Z Vertex 3 {m}
  35.9, 43.2, 11.3;                       !- X,Y,Z Vertex 4 {m}

ZoneControl:Thermostat,
  Room_1413_b054cecc Thermostat,          !- Name
  Room_1413_b054cecc,                     !- Zone or ZoneList Name
  Room_1413_b054cecc Thermostat Schedule, !- Control Type Schedule Name
  ThermostatSetpoint:DualSetpoint,        !- Control 1 Object Type
  Setpoint_2eba0a66 4,                    !- Control 1 Name
  ,                                       !- Control 2 Object Type
  ,                                       !- Control 2 Name
  ,                                       !- Control 3 Object Type
  ,                                       !- Control 3 Name
  ,                                       !- Control 4 Object Type
  ,                                       !- Control 4 Name
  0;                                      !- Temperature Difference Between Cutout And Setpoint {deltaC}

Schedule:Compact,
  Room_1413_b054cecc Thermostat Schedule, !- Name
  Room_1413_b054cecc Thermostat Schedule Type Limits, !- Schedule Type Limits Name
  Through: 12/31,                         !- Field 1
  For: AllDays,                           !- Field 2
  Until: 24:00,                           !- Field 3
  4;                                      !- Field 4

ScheduleTypeLimits,
  Room_1413_b054cecc Thermostat Schedule Type Limits, !- Name
  0,                                      !- Lower Limit Value {BasedOnField A3}
  4,                                      !- Upper Limit Value {BasedOnField A3}
  DISCRETE;                               !- Numeric Type

ThermostatSetpoint:DualSetpoint,
  Setpoint_2eba0a66 4,                    !- Name
  ConstantSchedule_3ec00e82,              !- Heating Setpoint Temperature Schedule Name
  ConstantSchedule_b6307482;              !- Cooling Setpoint Temperature Schedule Name

ZoneVentilation:WindandStackOpenArea,
  Aperture_1477af76_Opening,              !- Name
  Room_1413_b054cecc,                     !- Zone or Space Name
  11.69,                                  !- Opening Area {m2}
  Always On Discrete,                     !- Opening Area Fraction Schedule Name
  Autocalculate,                          !- Opening Effectiveness {dimensionless}
  180,                                    !- Effective Angle {deg}
  0.875,                                  !- Height Difference {m}
  0.45,                                   !- Discharge Coefficient for Opening
  -100,                                   !- Minimum Indoor Temperature {C}
  ,                                       !- Minimum Indoor Temperature Schedule Name
  100,                                    !- Maximum Indoor Temperature {C}
  ,                                       !- Maximum Indoor Temperature Schedule Name
  -100,                                   !- Delta Temperature {deltaC}
  ,                                       !- Delta Temperature Schedule Name
  22,                                     !- Minimum Outdoor Temperature {C}
  ,                                       !- Minimum Outdoor Temperature Schedule Name
  26,                                     !- Maximum Outdoor Temperature {C}
  ,                                       !- Maximum Outdoor Temperature Schedule Name
  40;                                     !- Maximum Wind Speed {m/s}

ZoneVentilation:WindandStackOpenArea,
  Aperture_e3fde880_Opening,              !- Name
  Room_1413_b054cecc,                     !- Zone or Space Name
  11.69,                                  !- Opening Area {m2}
  Always On Discrete,                     !- Opening Area Fraction Schedule Name
  Autocalculate,                          !- Opening Effectiveness {dimensionless}
  180,                                    !- Effective Angle {deg}
  0.875,                                  !- Height Difference {m}
  0.45,                                   !- Discharge Coefficient for Opening
  -100,                                   !- Minimum Indoor Temperature {C}
  ,                                       !- Minimum Indoor Temperature Schedule Name
  100,                                    !- Maximum Indoor Temperature {C}
  ,                                       !- Maximum Indoor Temperature Schedule Name
  -100,                                   !- Delta Temperature {deltaC}
  ,                                       !- Delta Temperature Schedule Name
  22,                                     !- Minimum Outdoor Temperature {C}
  ,                                       !- Minimum Outdoor Temperature Schedule Name
  26,                                     !- Maximum Outdoor Temperature {C}
  ,                                       !- Maximum Outdoor Temperature Schedule Name
  40;                                     !- Maximum Wind Speed {m/s}

ZoneVentilation:WindandStackOpenArea,
  Aperture_e7af2f01_Opening,              !- Name
  Room_1413_b054cecc,                     !- Zone or Space Name
  3.248,                                  !- Opening Area {m2}
  Always On Discrete,                     !- Opening Area Fraction Schedule Name
  Autocalculate,                          !- Opening Effectiveness {dimensionless}
  180,                                    !- Effective Angle {deg}
  0.875,                                  !- Height Difference {m}
  0.45,                                   !- Discharge Coefficient for Opening
  -100,                                   !- Minimum Indoor Temperature {C}
  ,                                       !- Minimum Indoor Temperature Schedule Name
  100,                                    !- Maximum Indoor Temperature {C}
  ,                                       !- Maximum Indoor Temperature Schedule Name
  -100,                                   !- Delta Temperature {deltaC}
  ,                                       !- Delta Temperature Schedule Name
  22,                                     !- Minimum Outdoor Temperature {C}
  ,                                       !- Minimum Outdoor Temperature Schedule Name
  26,                                     !- Maximum Outdoor Temperature {C}
  ,                                       !- Maximum Outdoor Temperature Schedule Name
  40;                                     !- Maximum Wind Speed {m/s}

ZoneVentilation:WindandStackOpenArea,
  Aperture_9196186b_Opening,              !- Name
  Room_1413_b054cecc,                     !- Zone or Space Name
  11.69,                                  !- Opening Area {m2}
  Always On Discrete,                     !- Opening Area Fraction Schedule Name
  Autocalculate,                          !- Opening Effectiveness {dimensionless}
  180,                                    !- Effective Angle {deg}
  0.875,                                  !- Height Difference {m}
  0.45,                                   !- Discharge Coefficient for Opening
  -100,                                   !- Minimum Indoor Temperature {C}
  ,                                       !- Minimum Indoor Temperature Schedule Name
  100,                                    !- Maximum Indoor Temperature {C}
  ,                                       !- Maximum Indoor Temperature Schedule Name
  -100,                                   !- Delta Temperature {deltaC}
  ,                                       !- Delta Temperature Schedule Name
  22,                                     !- Minimum Outdoor Temperature {C}
  ,                                       !- Minimum Outdoor Temperature Schedule Name
  26,                                     !- Maximum Outdoor Temperature {C}
  ,                                       !- Maximum Outdoor Temperature Schedule Name
  40;                                     !- Maximum Wind Speed {m/s}

ZoneVentilation:WindandStackOpenArea,
  Aperture_c7fca6f3_Opening,              !- Name
  Room_1413_b054cecc,                     !- Zone or Space Name
  11.69,                                  !- Opening Area {m2}
  Always On Discrete,                     !- Opening Area Fraction Schedule Name
  Autocalculate,                          !- Opening Effectiveness {dimensionless}
  180,                                    !- Effective Angle {deg}
  0.875,                                  !- Height Difference {m}
  0.45,                                   !- Discharge Coefficient for Opening
  -100,                                   !- Minimum Indoor Temperature {C}
  ,                                       !- Minimum Indoor Temperature Schedule Name
  100,                                    !- Maximum Indoor Temperature {C}
  ,                                       !- Maximum Indoor Temperature Schedule Name
  -100,                                   !- Delta Temperature {deltaC}
  ,                                       !- Delta Temperature Schedule Name
  22,                                     !- Minimum Outdoor Temperature {C}
  ,                                       !- Minimum Outdoor Temperature Schedule Name
  26,                                     !- Maximum Outdoor Temperature {C}
  ,                                       !- Maximum Outdoor Temperature Schedule Name
  40;                                     !- Maximum Wind Speed {m/s}

ZoneVentilation:WindandStackOpenArea,
  Aperture_69a68e73_Opening,              !- Name
  Room_1413_b054cecc,                     !- Zone or Space Name
  11.69,                                  !- Opening Area {m2}
  Always On Discrete,                     !- Opening Area Fraction Schedule Name
  Autocalculate,                          !- Opening Effectiveness {dimensionless}
  0,                                      !- Effective Angle {deg}
  0.875,                                  !- Height Difference {m}
  0.45,                                   !- Discharge Coefficient for Opening
  -100,                                   !- Minimum Indoor Temperature {C}
  ,                                       !- Minimum Indoor Temperature Schedule Name
  100,                                    !- Maximum Indoor Temperature {C}
  ,                                       !- Maximum Indoor Temperature Schedule Name
  -100,                                   !- Delta Temperature {deltaC}
  ,                                       !- Delta Temperature Schedule Name
  22,                                     !- Minimum Outdoor Temperature {C}
  ,                                       !- Minimum Outdoor Temperature Schedule Name
  26,                                     !- Maximum Outdoor Temperature {C}
  ,                                       !- Maximum Outdoor Temperature Schedule Name
  40;                                     !- Maximum Wind Speed {m/s}

ZoneVentilation:WindandStackOpenArea,
  Aperture_061ba8bb_Opening,              !- Name
  Room_1413_b054cecc,                     !- Zone or Space Name
  11.69,                                  !- Opening Area {m2}
  Always On Discrete,                     !- Opening Area Fraction Schedule Name
  Autocalculate,                          !- Opening Effectiveness {dimensionless}
  0,                                      !- Effective Angle {deg}
  0.875,                                  !- Height Difference {m}
  0.45,                                   !- Discharge Coefficient for Opening
  -100,                                   !- Minimum Indoor Temperature {C}
  ,                                       !- Minimum Indoor Temperature Schedule Name
  100,                                    !- Maximum Indoor Temperature {C}
  ,                                       !- Maximum Indoor Temperature Schedule Name
  -100,                                   !- Delta Temperature {deltaC}
  ,                                       !- Delta Temperature Schedule Name
  22,                                     !- Minimum Outdoor Temperature {C}
  ,                                       !- Minimum Outdoor Temperature Schedule Name
  26,                                     !- Maximum Outdoor Temperature {C}
  ,                                       !- Maximum Outdoor Temperature Schedule Name
  40;                                     !- Maximum Wind Speed {m/s}

ZoneVentilation:WindandStackOpenArea,
  Aperture_5ea63e00_Opening,              !- Name
  Room_1413_b054cecc,                     !- Zone or Space Name
  11.69,                                  !- Opening Area {m2}
  Always On Discrete,                     !- Opening Area Fraction Schedule Name
  Autocalculate,                          !- Opening Effectiveness {dimensionless}
  0,                                      !- Effective Angle {deg}
  0.875,                                  !- Height Difference {m}
  0.45,                                   !- Discharge Coefficient for Opening
  -100,                                   !- Minimum Indoor Temperature {C}
  ,                                       !- Minimum Indoor Temperature Schedule Name
  100,                                    !- Maximum Indoor Temperature {C}
  ,                                       !- Maximum Indoor Temperature Schedule Name
  -100,                                   !- Delta Temperature {deltaC}
  ,                                       !- Delta Temperature Schedule Name
  22,                                     !- Minimum Outdoor Temperature {C}
  ,                                       !- Minimum Outdoor Temperature Schedule Name
  26,                                     !- Maximum Outdoor Temperature {C}
  ,                                       !- Maximum Outdoor Temperature Schedule Name
  40;                                     !- Maximum Wind Speed {m/s}

ZoneVentilation:WindandStackOpenArea,
  Aperture_726a3117_Opening,              !- Name
  Room_1413_b054cecc,                     !- Zone or Space Name
  11.69,                                  !- Opening Area {m2}
  Always On Discrete,                     !- Opening Area Fraction Schedule Name
  Autocalculate,                          !- Opening Effectiveness {dimensionless}
  0,                                      !- Effective Angle {deg}
  0.875,                                  !- Height Difference {m}
  0.45,                                   !- Discharge Coefficient for Opening
  -100,                                   !- Minimum Indoor Temperature {C}
  ,                                       !- Minimum Indoor Temperature Schedule Name
  100,                                    !- Maximum Indoor Temperature {C}
  ,                                       !- Maximum Indoor Temperature Schedule Name
  -100,                                   !- Delta Temperature {deltaC}
  ,                                       !- Delta Temperature Schedule Name
  22,                                     !- Minimum Outdoor Temperature {C}
  ,                                       !- Minimum Outdoor Temperature Schedule Name
  26,                                     !- Maximum Outdoor Temperature {C}
  ,                                       !- Maximum Outdoor Temperature Schedule Name
  40;                                     !- Maximum Wind Speed {m/s}

ZoneVentilation:WindandStackOpenArea,
  Aperture_4f7d4bd1_Opening,              !- Name
  Room_1413_b054cecc,                     !- Zone or Space Name
  11.69,                                  !- Opening Area {m2}
  Always On Discrete,                     !- Opening Area Fraction Schedule Name
  Autocalculate,                          !- Opening Effectiveness {dimensionless}
  0,                                      !- Effective Angle {deg}
  0.875,                                  !- Height Difference {m}
  0.45,                                   !- Discharge Coefficient for Opening
  -100,                                   !- Minimum Indoor Temperature {C}
  ,                                       !- Minimum Indoor Temperature Schedule Name
  100,                                    !- Maximum Indoor Temperature {C}
  ,                                       !- Maximum Indoor Temperature Schedule Name
  -100,                                   !- Delta Temperature {deltaC}
  ,                                       !- Delta Temperature Schedule Name
  22,                                     !- Minimum Outdoor Temperature {C}
  ,                                       !- Minimum Outdoor Temperature Schedule Name
  26,                                     !- Maximum Outdoor Temperature {C}
  ,                                       !- Maximum Outdoor Temperature Schedule Name
  40;                                     !- Maximum Wind Speed {m/s}

ZoneVentilation:WindandStackOpenArea,
  Aperture_c6d75666_Opening,              !- Name
  Room_1413_b054cecc,                     !- Zone or Space Name
  11.69,                                  !- Opening Area {m2}
  Always On Discrete,                     !- Opening Area Fraction Schedule Name
  Autocalculate,                          !- Opening Effectiveness {dimensionless}
  0,                                      !- Effective Angle {deg}
  0.875,                                  !- Height Difference {m}
  0.45,                                   !- Discharge Coefficient for Opening
  -100,                                   !- Minimum Indoor Temperature {C}
  ,                                       !- Minimum Indoor Temperature Schedule Name
  100,                                    !- Maximum Indoor Temperature {C}
  ,                                       !- Maximum Indoor Temperature Schedule Name
  -100,                                   !- Delta Temperature {deltaC}
  ,                                       !- Delta Temperature Schedule Name
  22,                                     !- Minimum Outdoor Temperature {C}
  ,                                       !- Minimum Outdoor Temperature Schedule Name
  26,                                     !- Maximum Outdoor Temperature {C}
  ,                                       !- Maximum Outdoor Temperature Schedule Name
  40;                                     !- Maximum Wind Speed {m/s}

ZoneVentilation:WindandStackOpenArea,
  Aperture_da24cdca_Opening,              !- Name
  Room_1413_b054cecc,                     !- Zone or Space Name
  11.69,                                  !- Opening Area {m2}
  Always On Discrete,                     !- Opening Area Fraction Schedule Name
  Autocalculate,                          !- Opening Effectiveness {dimensionless}
  0,                                      !- Effective Angle {deg}
  0.875,                                  !- Height Difference {m}
  0.45,                                   !- Discharge Coefficient for Opening
  -100,                                   !- Minimum Indoor Temperature {C}
  ,                                       !- Minimum Indoor Temperature Schedule Name
  100,                                    !- Maximum Indoor Temperature {C}
  ,                                       !- Maximum Indoor Temperature Schedule Name
  -100,                                   !- Delta Temperature {deltaC}
  ,                                       !- Delta Temperature Schedule Name
  22,                                     !- Minimum Outdoor Temperature {C}
  ,                                       !- Minimum Outdoor Temperature Schedule Name
  26,                                     !- Maximum Outdoor Temperature {C}
  ,                                       !- Maximum Outdoor Temperature Schedule Name
  40;                                     !- Maximum Wind Speed {m/s}

ZoneVentilation:WindandStackOpenArea,
  Aperture_9a137886_Opening,              !- Name
  Room_1413_b054cecc,                     !- Zone or Space Name
  3.248,                                  !- Opening Area {m2}
  Always On Discrete,                     !- Opening Area Fraction Schedule Name
  Autocalculate,                          !- Opening Effectiveness {dimensionless}
  0,                                      !- Effective Angle {deg}
  0.875,                                  !- Height Difference {m}
  0.45,                                   !- Discharge Coefficient for Opening
  -100,                                   !- Minimum Indoor Temperature {C}
  ,                                       !- Minimum Indoor Temperature Schedule Name
  100,                                    !- Maximum Indoor Temperature {C}
  ,                                       !- Maximum Indoor Temperature Schedule Name
  -100,                                   !- Delta Temperature {deltaC}
  ,                                       !- Delta Temperature Schedule Name
  22,                                     !- Minimum Outdoor Temperature {C}
  ,                                       !- Minimum Outdoor Temperature Schedule Name
  26,                                     !- Maximum Outdoor Temperature {C}
  ,                                       !- Maximum Outdoor Temperature Schedule Name
  40;                                     !- Maximum Wind Speed {m/s}

ZoneVentilation:WindandStackOpenArea,
  Aperture_b4d47ed9_Opening,              !- Name
  Room_1413_b054cecc,                     !- Zone or Space Name
  11.69,                                  !- Opening Area {m2}
  Always On Discrete,                     !- Opening Area Fraction Schedule Name
  Autocalculate,                          !- Opening Effectiveness {dimensionless}
  270,                                    !- Effective Angle {deg}
  0.875,                                  !- Height Difference {m}
  0.45,                                   !- Discharge Coefficient for Opening
  -100,                                   !- Minimum Indoor Temperature {C}
  ,                                       !- Minimum Indoor Temperature Schedule Name
  100,                                    !- Maximum Indoor Temperature {C}
  ,                                       !- Maximum Indoor Temperature Schedule Name
  -100,                                   !- Delta Temperature {deltaC}
  ,                                       !- Delta Temperature Schedule Name
  22,                                     !- Minimum Outdoor Temperature {C}
  ,                                       !- Minimum Outdoor Temperature Schedule Name
  26,                                     !- Maximum Outdoor Temperature {C}
  ,                                       !- Maximum Outdoor Temperature Schedule Name
  40;                                     !- Maximum Wind Speed {m/s}

ZoneVentilation:WindandStackOpenArea,
  Aperture_561b6582_Opening,              !- Name
  Room_1413_b054cecc,                     !- Zone or Space Name
  11.69,                                  !- Opening Area {m2}
  Always On Discrete,                     !- Opening Area Fraction Schedule Name
  Autocalculate,                          !- Opening Effectiveness {dimensionless}
  270,                                    !- Effective Angle {deg}
  0.875,                                  !- Height Difference {m}
  0.45,                                   !- Discharge Coefficient for Opening
  -100,                                   !- Minimum Indoor Temperature {C}
  ,                                       !- Minimum Indoor Temperature Schedule Name
  100,                                    !- Maximum Indoor Temperature {C}
  ,                                       !- Maximum Indoor Temperature Schedule Name
  -100,                                   !- Delta Temperature {deltaC}
  ,                                       !- Delta Temperature Schedule Name
  22,                                     !- Minimum Outdoor Temperature {C}
  ,                                       !- Minimum Outdoor Temperature Schedule Name
  26,                                     !- Maximum Outdoor Temperature {C}
  ,                                       !- Maximum Outdoor Temperature Schedule Name
  40;                                     !- Maximum Wind Speed {m/s}

ZoneVentilation:WindandStackOpenArea,
  Aperture_7a88443b_Opening,              !- Name
  Room_1413_b054cecc,                     !- Zone or Space Name
  11.69,                                  !- Opening Area {m2}
  Always On Discrete,                     !- Opening Area Fraction Schedule Name
  Autocalculate,                          !- Opening Effectiveness {dimensionless}
  270,                                    !- Effective Angle {deg}
  0.875,                                  !- Height Difference {m}
  0.45,                                   !- Discharge Coefficient for Opening
  -100,                                   !- Minimum Indoor Temperature {C}
  ,                                       !- Minimum Indoor Temperature Schedule Name
  100,                                    !- Maximum Indoor Temperature {C}
  ,                                       !- Maximum Indoor Temperature Schedule Name
  -100,                                   !- Delta Temperature {deltaC}
  ,                                       !- Delta Temperature Schedule Name
  22,                                     !- Minimum Outdoor Temperature {C}
  ,                                       !- Minimum Outdoor Temperature Schedule Name
  26,                                     !- Maximum Outdoor Temperature {C}
  ,                                       !- Maximum Outdoor Temperature Schedule Name
  40;                                     !- Maximum Wind Speed {m/s}

ZoneVentilation:WindandStackOpenArea,
  Aperture_a0f03aa4_Opening,              !- Name
  Room_1413_b054cecc,                     !- Zone or Space Name
  11.69,                                  !- Opening Area {m2}
  Always On Discrete,                     !- Opening Area Fraction Schedule Name
  Autocalculate,                          !- Opening Effectiveness {dimensionless}
  90,                                     !- Effective Angle {deg}
  0.875,                                  !- Height Difference {m}
  0.45,                                   !- Discharge Coefficient for Opening
  -100,                                   !- Minimum Indoor Temperature {C}
  ,                                       !- Minimum Indoor Temperature Schedule Name
  100,                                    !- Maximum Indoor Temperature {C}
  ,                                       !- Maximum Indoor Temperature Schedule Name
  -100,                                   !- Delta Temperature {deltaC}
  ,                                       !- Delta Temperature Schedule Name
  22,                                     !- Minimum Outdoor Temperature {C}
  ,                                       !- Minimum Outdoor Temperature Schedule Name
  26,                                     !- Maximum Outdoor Temperature {C}
  ,                                       !- Maximum Outdoor Temperature Schedule Name
  40;                                     !- Maximum Wind Speed {m/s}

ZoneVentilation:WindandStackOpenArea,
  Aperture_ce65421b_Opening,              !- Name
  Room_1413_b054cecc,                     !- Zone or Space Name
  11.69,                                  !- Opening Area {m2}
  Always On Discrete,                     !- Opening Area Fraction Schedule Name
  Autocalculate,                          !- Opening Effectiveness {dimensionless}
  90,                                     !- Effective Angle {deg}
  0.875,                                  !- Height Difference {m}
  0.45,                                   !- Discharge Coefficient for Opening
  -100,                                   !- Minimum Indoor Temperature {C}
  ,                                       !- Minimum Indoor Temperature Schedule Name
  100,                                    !- Maximum Indoor Temperature {C}
  ,                                       !- Maximum Indoor Temperature Schedule Name
  -100,                                   !- Delta Temperature {deltaC}
  ,                                       !- Delta Temperature Schedule Name
  22,                                     !- Minimum Outdoor Temperature {C}
  ,                                       !- Minimum Outdoor Temperature Schedule Name
  26,                                     !- Maximum Outdoor Temperature {C}
  ,                                       !- Maximum Outdoor Temperature Schedule Name
  40;                                     !- Maximum Wind Speed {m/s}

ZoneVentilation:WindandStackOpenArea,
  Aperture_b31eefc8_Opening,              !- Name
  Room_1413_b054cecc,                     !- Zone or Space Name
  11.69,                                  !- Opening Area {m2}
  Always On Discrete,                     !- Opening Area Fraction Schedule Name
  Autocalculate,                          !- Opening Effectiveness {dimensionless}
  90,                                     !- Effective Angle {deg}
  0.875,                                  !- Height Difference {m}
  0.45,                                   !- Discharge Coefficient for Opening
  -100,                                   !- Minimum Indoor Temperature {C}
  ,                                       !- Minimum Indoor Temperature Schedule Name
  100,                                    !- Maximum Indoor Temperature {C}
  ,                                       !- Maximum Indoor Temperature Schedule Name
  -100,                                   !- Delta Temperature {deltaC}
  ,                                       !- Delta Temperature Schedule Name
  22,                                     !- Minimum Outdoor Temperature {C}
  ,                                       !- Minimum Outdoor Temperature Schedule Name
  26,                                     !- Maximum Outdoor Temperature {C}
  ,                                       !- Maximum Outdoor Temperature Schedule Name
  40;                                     !- Maximum Wind Speed {m/s}

ZoneHVAC:EquipmentConnections,
  Room_1413_b054cecc,                     !- Zone Name
  Room_1413_b054cecc Equipment List,      !- Zone Conditioning Equipment List Name
  Room_1413_b054cecc Inlet Node List,     !- Zone Air Inlet Node or NodeList Name
  Room_1413_b054cecc Exhaust Node List,   !- Zone Air Exhaust Node or NodeList Name
  Node 5;                                 !- Zone Air Node Name

NodeList,
  Room_1413_b054cecc Inlet Node List,     !- Name
  Node 27;                                !- Node Name 1

NodeList,
  Room_1413_b054cecc Exhaust Node List,   !- Name
  Node 26;                                !- Node Name 1

ZoneHVAC:IdealLoadsAirSystem,
  Room_1413_b054cecc Ideal Loads Air System, !- Name
  ,                                       !- Availability Schedule Name
  Node 27,                                !- Zone Supply Air Node Name
  Node 26,                                !- Zone Exhaust Air Node Name
  ,                                       !- System Inlet Air Node Name
  50,                                     !- Maximum Heating Supply Air Temperature {C}
  13,                                     !- Minimum Cooling Supply Air Temperature {C}
  ,                                       !- Maximum Heating Supply Air Humidity Ratio {kgWater/kgDryAir}
  ,                                       !- Minimum Cooling Supply Air Humidity Ratio {kgWater/kgDryAir}
  LimitCapacity,                          !- Heating Limit
  ,                                       !- Maximum Heating Air Flow Rate {m3/s}
  Autosize,                               !- Maximum Sensible Heating Capacity {W}
  LimitFlowRateAndCapacity,               !- Cooling Limit
  Autosize,                               !- Maximum Cooling Air Flow Rate {m3/s}
  Autosize,                               !- Maximum Total Cooling Capacity {W}
  WeeklySchedule_2856ceac,                !- Heating Availability Schedule Name
  WeeklySchedule_2856ceac,                !- Cooling Availability Schedule Name
  None,                                   !- Dehumidification Control Type
  ,                                       !- Cooling Sensible Heat Ratio {dimensionless}
  ,                                       !- Humidification Control Type
  Ventilation_b96face6,                   !- Design Specification Outdoor Air Object Name
  ,                                       !- Outdoor Air Inlet Node Name
  None,                                   !- Demand Controlled Ventilation Type
  DifferentialDryBulb,                    !- Outdoor Air Economizer Type
  ,                                       !- Heat Recovery Type
  0,                                      !- Sensible Heat Recovery Effectiveness {dimensionless}
  0;                                      !- Latent Heat Recovery Effectiveness {dimensionless}

ZoneHVAC:EquipmentList,
  Room_1413_b054cecc Equipment List,      !- Name
  SequentialLoad,                         !- Load Distribution Scheme
  ZoneHVAC:IdealLoadsAirSystem,           !- Zone Equipment Object Type 1
  Room_1413_b054cecc Ideal Loads Air System, !- Zone Equipment Name 1
  1,                                      !- Zone Equipment Cooling Sequence 1
  1,                                      !- Zone Equipment Heating or No-Load Sequence 1
  ,                                       !- Zone Equipment Sequential Cooling Fraction Schedule Name 1
  ;                                       !- Zone Equipment Sequential Heating Fraction Schedule Name 1

Sizing:Zone,
  Room_1413_b054cecc,                     !- Zone or ZoneList Name
  SupplyAirTemperature,                   !- Zone Cooling Design Supply Air Temperature Input Method
  14,                                     !- Zone Cooling Design Supply Air Temperature {C}
  11.11,                                  !- Zone Cooling Design Supply Air Temperature Difference {deltaC}
  SupplyAirTemperature,                   !- Zone Heating Design Supply Air Temperature Input Method
  40,                                     !- Zone Heating Design Supply Air Temperature {C}
  11.11,                                  !- Zone Heating Design Supply Air Temperature Difference {deltaC}
  0.0085,                                 !- Zone Cooling Design Supply Air Humidity Ratio {kgWater/kgDryAir}
  0.008,                                  !- Zone Heating Design Supply Air Humidity Ratio {kgWater/kgDryAir}
  Room_1413_b054cecc DSOA Space List,     !- Design Specification Outdoor Air Object Name
  ,                                       !- Zone Heating Sizing Factor
  ,                                       !- Zone Cooling Sizing Factor
  DesignDay,                              !- Cooling Design Air Flow Method
  0,                                      !- Cooling Design Air Flow Rate {m3/s}
  0.000762,                               !- Cooling Minimum Air Flow per Zone Floor Area {m3/s-m2}
  0,                                      !- Cooling Minimum Air Flow {m3/s}
  0,                                      !- Cooling Minimum Air Flow Fraction
  DesignDay,                              !- Heating Design Air Flow Method
  0,                                      !- Heating Design Air Flow Rate {m3/s}
  0.002032,                               !- Heating Maximum Air Flow per Zone Floor Area {m3/s-m2}
  0.1415762,                              !- Heating Maximum Air Flow {m3/s}
  0.3,                                    !- Heating Maximum Air Flow Fraction
  ,                                       !- Design Specification Zone Air Distribution Object Name
  No,                                     !- Account for Dedicated Outdoor Air System
  ,                                       !- Dedicated Outdoor Air System Control Strategy
  ,                                       !- Dedicated Outdoor Air Low Setpoint Temperature for Design {C}
  ,                                       !- Dedicated Outdoor Air High Setpoint Temperature for Design {C}
  Sensible Load Only No Latent Load,      !- Zone Load Sizing Method
  HumidityRatioDifference,                !- Zone Latent Cooling Design Supply Air Humidity Ratio Input Method
  ,                                       !- Zone Dehumidification Design Supply Air Humidity Ratio {kgWater/kgDryAir}
  0.005,                                  !- Zone Cooling Design Supply Air Humidity Ratio Difference {kgWater/kgDryAir}
  HumidityRatioDifference,                !- Zone Latent Heating Design Supply Air Humidity Ratio Input Method
  ,                                       !- Zone Humidification Design Supply Air Humidity Ratio {kgWater/kgDryAir}
  0.005;                                  !- Zone Humidification Design Supply Air Humidity Ratio Difference {kgWater/kgDryAir}

DesignSpecification:OutdoorAir:SpaceList,
  Room_1413_b054cecc DSOA Space List,     !- Name
  Room_1413_b054cecc_Space,               !- Space Name 1
  Ventilation_b96face6;                   !- Space Design Specification Outdoor Air Object Name 1

Zone,
  Room_1414_dce579f1,                     !- Name
  ,                                       !- Direction of Relative North {deg}
  0,                                      !- X Origin {m}
  0,                                      !- Y Origin {m}
  0,                                      !- Z Origin {m}
  ,                                       !- Type
  1,                                      !- Multiplier
  4.50000000000001,                       !- Ceiling Height {m}
  15867.7056,                             !- Volume {m3}
  ,                                       !- Floor Area {m2}
  ,                                       !- Zone Inside Convection Algorithm
  ,                                       !- Zone Outside Convection Algorithm
  Yes;                                    !- Part of Total Floor Area

Space,
  Room_1414_dce579f1_Space,               !- Name
  Room_1414_dce579f1,                     !- Zone Name
  ,                                       !- Ceiling Height {m}
  ,                                       !- Volume {m3}
  ,                                       !- Floor Area {m2}
  ProgramType_f9e2e425;                   !- Space Type

BuildingSurface:Detailed,
  Room_1414_dce579f1..Face0,              !- Name
  Floor,                                  !- Surface Type
  OpaqueConstruction_47cf3687,            !- Construction Name
  Room_1414_dce579f1,                     !- Zone Name
  Room_1414_dce579f1_Space,               !- Space Name
  Outdoors,                               !- Outside Boundary Condition
  ,                                       !- Outside Boundary Condition Object
  SunExposed,                             !- Sun Exposure
  WindExposed,                            !- Wind Exposure
  ,                                       !- View Factor to Ground
  ,                                       !- Number of Vertices
  52.776, 28.8, 13.5,                     !- X,Y,Z Vertex 1 {m}
  52.776, -4.99600361081327e-16, 13.5,    !- X,Y,Z Vertex 2 {m}
  14.4, -9.99200722162641e-16, 13.5,      !- X,Y,Z Vertex 3 {m}
  14.4, 28.8, 13.5;                       !- X,Y,Z Vertex 4 {m}

BuildingSurface:Detailed,
  Room_1414_dce579f1..Face1,              !- Name
  Floor,                                  !- Surface Type
  OpaqueConstruction_47cf3687,            !- Construction Name
  Room_1414_dce579f1,                     !- Zone Name
  Room_1414_dce579f1_Space,               !- Space Name
  Outdoors,                               !- Outside Boundary Condition
  ,                                       !- Outside Boundary Condition Object
  SunExposed,                             !- Sun Exposure
  WindExposed,                            !- Wind Exposure
  ,                                       !- View Factor to Ground
  ,                                       !- Number of Vertices
  108, 28.8, 13.5,                        !- X,Y,Z Vertex 1 {m}
  108, -9.99200722162641e-16, 13.5,       !- X,Y,Z Vertex 2 {m}
  72, -9.99200722162641e-16, 13.5,        !- X,Y,Z Vertex 3 {m}
  72, 28.8, 13.5;                         !- X,Y,Z Vertex 4 {m}

BuildingSurface:Detailed,
  Room_1414_dce579f1..Face10,             !- Name
  Wall,                                   !- Surface Type
  OpaqueConstruction_47cf3687,            !- Construction Name
  Room_1414_dce579f1,                     !- Zone Name
  Room_1414_dce579f1_Space,               !- Space Name
  Outdoors,                               !- Outside Boundary Condition
  ,                                       !- Outside Boundary Condition Object
  SunExposed,                             !- Sun Exposure
  WindExposed,                            !- Wind Exposure
  ,                                       !- View Factor to Ground
  ,                                       !- Number of Vertices
  72, 43.2, 18,                           !- X,Y,Z Vertex 1 {m}
  72, 43.2, 13.5,                         !- X,Y,Z Vertex 2 {m}
  72, 72, 13.5,                           !- X,Y,Z Vertex 3 {m}
  72, 72, 18;                             !- X,Y,Z Vertex 4 {m}

FenestrationSurface:Detailed,
  Aperture_62758926,                      !- Name
  Window,                                 !- Surface Type
  WindowConstruction_1dfe9b5d,            !- Construction Name
  Room_1414_dce579f1..Face10,             !- Building Surface Name
  ,                                       !- Outside Boundary Condition Object
  ,                                       !- View Factor to Ground
  ,                                       !- Frame and Divider Name
  ,                                       !- Multiplier
  ,                                       !- Number of Vertices
  72, 65.06, 17.1,                        !- X,Y,Z Vertex 1 {m}
  72, 65.06, 13.6,                        !- X,Y,Z Vertex 2 {m}
  72, 71.74, 13.6,                        !- X,Y,Z Vertex 3 {m}
  72, 71.74, 17.1;                        !- X,Y,Z Vertex 4 {m}

FenestrationSurface:Detailed,
  Aperture_8473cf6d,                      !- Name
  Window,                                 !- Surface Type
  WindowConstruction_1dfe9b5d,            !- Construction Name
  Room_1414_dce579f1..Face10,             !- Building Surface Name
  ,                                       !- Outside Boundary Condition Object
  ,                                       !- View Factor to Ground
  ,                                       !- Frame and Divider Name
  ,                                       !- Multiplier
  ,                                       !- Number of Vertices
  72, 50.66, 17.1,                        !- X,Y,Z Vertex 1 {m}
  72, 50.66, 13.6,                        !- X,Y,Z Vertex 2 {m}
  72, 57.34, 13.6,                        !- X,Y,Z Vertex 3 {m}
  72, 57.34, 17.1;                        !- X,Y,Z Vertex 4 {m}

FenestrationSurface:Detailed,
  Aperture_b52760dc,                      !- Name
  Window,                                 !- Surface Type
  WindowConstruction_1dfe9b5d,            !- Construction Name
  Room_1414_dce579f1..Face10,             !- Building Surface Name
  ,                                       !- Outside Boundary Condition Object
  ,                                       !- View Factor to Ground
  ,                                       !- Frame and Divider Name
  ,                                       !- Multiplier
  ,                                       !- Number of Vertices
  72, 57.86, 17.1,                        !- X,Y,Z Vertex 1 {m}
  72, 57.86, 13.6,                        !- X,Y,Z Vertex 2 {m}
  72, 64.54, 13.6,                        !- X,Y,Z Vertex 3 {m}
  72, 64.54, 17.1;                        !- X,Y,Z Vertex 4 {m}

FenestrationSurface:Detailed,
  Aperture_bd6b0a40,                      !- Name
  Window,                                 !- Surface Type
  WindowConstruction_1dfe9b5d,            !- Construction Name
  Room_1414_dce579f1..Face10,             !- Building Surface Name
  ,                                       !- Outside Boundary Condition Object
  ,                                       !- View Factor to Ground
  ,                                       !- Frame and Divider Name
  ,                                       !- Multiplier
  ,                                       !- Number of Vertices
  72, 43.46, 17.1,                        !- X,Y,Z Vertex 1 {m}
  72, 43.46, 13.6,                        !- X,Y,Z Vertex 2 {m}
  72, 50.14, 13.6,                        !- X,Y,Z Vertex 3 {m}
  72, 50.14, 17.1;                        !- X,Y,Z Vertex 4 {m}

BuildingSurface:Detailed,
  Room_1414_dce579f1..Face11,             !- Name
  Wall,                                   !- Surface Type
  OpaqueConstruction_47cf3687,            !- Construction Name
  Room_1414_dce579f1,                     !- Zone Name
  Room_1414_dce579f1_Space,               !- Space Name
  Outdoors,                               !- Outside Boundary Condition
  ,                                       !- Outside Boundary Condition Object
  SunExposed,                             !- Sun Exposure
  WindExposed,                            !- Wind Exposure
  ,                                       !- View Factor to Ground
  ,                                       !- Number of Vertices
  52.776, 28.8, 18,                       !- X,Y,Z Vertex 1 {m}
  52.776, 28.8, 13.5,                     !- X,Y,Z Vertex 2 {m}
  36, 28.8, 13.5,                         !- X,Y,Z Vertex 3 {m}
  36, 28.8, 18;                           !- X,Y,Z Vertex 4 {m}

FenestrationSurface:Detailed,
  Aperture_76c85cdc,                      !- Name
  Window,                                 !- Surface Type
  WindowConstruction_1dfe9b5d,            !- Construction Name
  Room_1414_dce579f1..Face11,             !- Building Surface Name
  ,                                       !- Outside Boundary Condition Object
  ,                                       !- View Factor to Ground
  ,                                       !- Frame and Divider Name
  ,                                       !- Multiplier
  ,                                       !- Number of Vertices
  52.516, 28.8, 17.1,                     !- X,Y,Z Vertex 1 {m}
  52.516, 28.8, 13.6,                     !- X,Y,Z Vertex 2 {m}
  50.66, 28.8, 13.6,                      !- X,Y,Z Vertex 3 {m}
  50.66, 28.8, 17.1;                      !- X,Y,Z Vertex 4 {m}

FenestrationSurface:Detailed,
  Aperture_961b17ee,                      !- Name
  Window,                                 !- Surface Type
  WindowConstruction_1dfe9b5d,            !- Construction Name
  Room_1414_dce579f1..Face11,             !- Building Surface Name
  ,                                       !- Outside Boundary Condition Object
  ,                                       !- View Factor to Ground
  ,                                       !- Frame and Divider Name
  ,                                       !- Multiplier
  ,                                       !- Number of Vertices
  42.94, 28.8, 17.1,                      !- X,Y,Z Vertex 1 {m}
  42.94, 28.8, 13.6,                      !- X,Y,Z Vertex 2 {m}
  36.26, 28.8, 13.6,                      !- X,Y,Z Vertex 3 {m}
  36.26, 28.8, 17.1;                      !- X,Y,Z Vertex 4 {m}

FenestrationSurface:Detailed,
  Aperture_abd9f4e4,                      !- Name
  Window,                                 !- Surface Type
  WindowConstruction_1dfe9b5d,            !- Construction Name
  Room_1414_dce579f1..Face11,             !- Building Surface Name
  ,                                       !- Outside Boundary Condition Object
  ,                                       !- View Factor to Ground
  ,                                       !- Frame and Divider Name
  ,                                       !- Multiplier
  ,                                       !- Number of Vertices
  50.14, 28.8, 17.1,                      !- X,Y,Z Vertex 1 {m}
  50.14, 28.8, 13.6,                      !- X,Y,Z Vertex 2 {m}
  43.46, 28.8, 13.6,                      !- X,Y,Z Vertex 3 {m}
  43.46, 28.8, 17.1;                      !- X,Y,Z Vertex 4 {m}

BuildingSurface:Detailed,
  Room_1414_dce579f1..Face12,             !- Name
  Wall,                                   !- Surface Type
  OpaqueConstruction_47cf3687,            !- Construction Name
  Room_1414_dce579f1,                     !- Zone Name
  Room_1414_dce579f1_Space,               !- Space Name
  Outdoors,                               !- Outside Boundary Condition
  ,                                       !- Outside Boundary Condition Object
  SunExposed,                             !- Sun Exposure
  WindExposed,                            !- Wind Exposure
  ,                                       !- View Factor to Ground
  ,                                       !- Number of Vertices
  108, 28.8, 18,                          !- X,Y,Z Vertex 1 {m}
  108, 28.8, 13.5,                        !- X,Y,Z Vertex 2 {m}
  93.6, 28.8, 13.5,                       !- X,Y,Z Vertex 3 {m}
  93.6, 28.8, 18;                         !- X,Y,Z Vertex 4 {m}

FenestrationSurface:Detailed,
  Aperture_81b9be19,                      !- Name
  Window,                                 !- Surface Type
  WindowConstruction_1dfe9b5d,            !- Construction Name
  Room_1414_dce579f1..Face12,             !- Building Surface Name
  ,                                       !- Outside Boundary Condition Object
  ,                                       !- View Factor to Ground
  ,                                       !- Frame and Divider Name
  ,                                       !- Multiplier
  ,                                       !- Number of Vertices
  100.54, 28.8, 17.1,                     !- X,Y,Z Vertex 1 {m}
  100.54, 28.8, 13.6,                     !- X,Y,Z Vertex 2 {m}
  93.86, 28.8, 13.6,                      !- X,Y,Z Vertex 3 {m}
  93.86, 28.8, 17.1;                      !- X,Y,Z Vertex 4 {m}

FenestrationSurface:Detailed,
  Aperture_a8a99d4d,                      !- Name
  Window,                                 !- Surface Type
  WindowConstruction_1dfe9b5d,            !- Construction Name
  Room_1414_dce579f1..Face12,             !- Building Surface Name
  ,                                       !- Outside Boundary Condition Object
  ,                                       !- View Factor to Ground
  ,                                       !- Frame and Divider Name
  ,                                       !- Multiplier
  ,                                       !- Number of Vertices
  107.74, 28.8, 17.1,                     !- X,Y,Z Vertex 1 {m}
  107.74, 28.8, 13.6,                     !- X,Y,Z Vertex 2 {m}
  101.06, 28.8, 13.6,                     !- X,Y,Z Vertex 3 {m}
  101.06, 28.8, 17.1;                     !- X,Y,Z Vertex 4 {m}

BuildingSurface:Detailed,
  Room_1414_dce579f1..Face13,             !- Name
  Wall,                                   !- Surface Type
  OpaqueConstruction_47cf3687,            !- Construction Name
  Room_1414_dce579f1,                     !- Zone Name
  Room_1414_dce579f1_Space,               !- Space Name
  Outdoors,                               !- Outside Boundary Condition
  ,                                       !- Outside Boundary Condition Object
  SunExposed,                             !- Sun Exposure
  WindExposed,                            !- Wind Exposure
  ,                                       !- View Factor to Ground
  ,                                       !- Number of Vertices
  108, -9.99200722162641e-16, 18,         !- X,Y,Z Vertex 1 {m}
  108, -9.99200722162641e-16, 13.5,       !- X,Y,Z Vertex 2 {m}
  108, 28.8, 13.5,                        !- X,Y,Z Vertex 3 {m}
  108, 28.8, 18;                          !- X,Y,Z Vertex 4 {m}

FenestrationSurface:Detailed,
  Aperture_43035d16,                      !- Name
  Window,                                 !- Surface Type
  WindowConstruction_1dfe9b5d,            !- Construction Name
  Room_1414_dce579f1..Face13,             !- Building Surface Name
  ,                                       !- Outside Boundary Condition Object
  ,                                       !- View Factor to Ground
  ,                                       !- Frame and Divider Name
  ,                                       !- Multiplier
  ,                                       !- Number of Vertices
  108, 14.66, 17.1,                       !- X,Y,Z Vertex 1 {m}
  108, 14.66, 13.6,                       !- X,Y,Z Vertex 2 {m}
  108, 21.34, 13.6,                       !- X,Y,Z Vertex 3 {m}
  108, 21.34, 17.1;                       !- X,Y,Z Vertex 4 {m}

FenestrationSurface:Detailed,
  Aperture_4bb51774,                      !- Name
  Window,                                 !- Surface Type
  WindowConstruction_1dfe9b5d,            !- Construction Name
  Room_1414_dce579f1..Face13,             !- Building Surface Name
  ,                                       !- Outside Boundary Condition Object
  ,                                       !- View Factor to Ground
  ,                                       !- Frame and Divider Name
  ,                                       !- Multiplier
  ,                                       !- Number of Vertices
  108, 21.86, 17.1,                       !- X,Y,Z Vertex 1 {m}
  108, 21.86, 13.6,                       !- X,Y,Z Vertex 2 {m}
  108, 28.54, 13.6,                       !- X,Y,Z Vertex 3 {m}
  108, 28.54, 17.1;                       !- X,Y,Z Vertex 4 {m}

FenestrationSurface:Detailed,
  Aperture_52703371,                      !- Name
  Window,                                 !- Surface Type
  WindowConstruction_1dfe9b5d,            !- Construction Name
  Room_1414_dce579f1..Face13,             !- Building Surface Name
  ,                                       !- Outside Boundary Condition Object
  ,                                       !- View Factor to Ground
  ,                                       !- Frame and Divider Name
  ,                                       !- Multiplier
  ,                                       !- Number of Vertices
  108, 0.259999999999999, 17.1,           !- X,Y,Z Vertex 1 {m}
  108, 0.259999999999999, 13.6,           !- X,Y,Z Vertex 2 {m}
  108, 6.94, 13.6,                        !- X,Y,Z Vertex 3 {m}
  108, 6.94, 17.1;                        !- X,Y,Z Vertex 4 {m}

FenestrationSurface:Detailed,
  Aperture_74ca7d90,                      !- Name
  Window,                                 !- Surface Type
  WindowConstruction_1dfe9b5d,            !- Construction Name
  Room_1414_dce579f1..Face13,             !- Building Surface Name
  ,                                       !- Outside Boundary Condition Object
  ,                                       !- View Factor to Ground
  ,                                       !- Frame and Divider Name
  ,                                       !- Multiplier
  ,                                       !- Number of Vertices
  108, 7.46, 17.1,                        !- X,Y,Z Vertex 1 {m}
  108, 7.46, 13.6,                        !- X,Y,Z Vertex 2 {m}
  108, 14.14, 13.6,                       !- X,Y,Z Vertex 3 {m}
  108, 14.14, 17.1;                       !- X,Y,Z Vertex 4 {m}

BuildingSurface:Detailed,
  Room_1414_dce579f1..Face14,             !- Name
  Wall,                                   !- Surface Type
  OpaqueConstruction_47cf3687,            !- Construction Name
  Room_1414_dce579f1,                     !- Zone Name
  Room_1414_dce579f1_Space,               !- Space Name
  Outdoors,                               !- Outside Boundary Condition
  ,                                       !- Outside Boundary Condition Object
  SunExposed,                             !- Sun Exposure
  WindExposed,                            !- Wind Exposure
  ,                                       !- View Factor to Ground
  ,                                       !- Number of Vertices
  14.4, 28.8, 18,                         !- X,Y,Z Vertex 1 {m}
  14.4, 28.8, 13.5,                       !- X,Y,Z Vertex 2 {m}
  14.4, -9.99200722162641e-16, 13.5,      !- X,Y,Z Vertex 3 {m}
  14.4, -9.99200722162641e-16, 18;        !- X,Y,Z Vertex 4 {m}

FenestrationSurface:Detailed,
  Aperture_2a0247c8,                      !- Name
  Window,                                 !- Surface Type
  WindowConstruction_1dfe9b5d,            !- Construction Name
  Room_1414_dce579f1..Face14,             !- Building Surface Name
  ,                                       !- Outside Boundary Condition Object
  ,                                       !- View Factor to Ground
  ,                                       !- Frame and Divider Name
  ,                                       !- Multiplier
  ,                                       !- Number of Vertices
  14.4, 21.34, 17.1,                      !- X,Y,Z Vertex 1 {m}
  14.4, 21.34, 13.6,                      !- X,Y,Z Vertex 2 {m}
  14.4, 14.66, 13.6,                      !- X,Y,Z Vertex 3 {m}
  14.4, 14.66, 17.1;                      !- X,Y,Z Vertex 4 {m}

FenestrationSurface:Detailed,
  Aperture_77eaba3e,                      !- Name
  Window,                                 !- Surface Type
  WindowConstruction_1dfe9b5d,            !- Construction Name
  Room_1414_dce579f1..Face14,             !- Building Surface Name
  ,                                       !- Outside Boundary Condition Object
  ,                                       !- View Factor to Ground
  ,                                       !- Frame and Divider Name
  ,                                       !- Multiplier
  ,                                       !- Number of Vertices
  14.4, 28.54, 17.1,                      !- X,Y,Z Vertex 1 {m}
  14.4, 28.54, 13.6,                      !- X,Y,Z Vertex 2 {m}
  14.4, 21.86, 13.6,                      !- X,Y,Z Vertex 3 {m}
  14.4, 21.86, 17.1;                      !- X,Y,Z Vertex 4 {m}

FenestrationSurface:Detailed,
  Aperture_8931b94b,                      !- Name
  Window,                                 !- Surface Type
  WindowConstruction_1dfe9b5d,            !- Construction Name
  Room_1414_dce579f1..Face14,             !- Building Surface Name
  ,                                       !- Outside Boundary Condition Object
  ,                                       !- View Factor to Ground
  ,                                       !- Frame and Divider Name
  ,                                       !- Multiplier
  ,                                       !- Number of Vertices
  14.4, 6.94, 17.1,                       !- X,Y,Z Vertex 1 {m}
  14.4, 6.94, 13.6,                       !- X,Y,Z Vertex 2 {m}
  14.4, 0.259999999999999, 13.6,          !- X,Y,Z Vertex 3 {m}
  14.4, 0.259999999999999, 17.1;          !- X,Y,Z Vertex 4 {m}

FenestrationSurface:Detailed,
  Aperture_a7ebffdb,                      !- Name
  Window,                                 !- Surface Type
  WindowConstruction_1dfe9b5d,            !- Construction Name
  Room_1414_dce579f1..Face14,             !- Building Surface Name
  ,                                       !- Outside Boundary Condition Object
  ,                                       !- View Factor to Ground
  ,                                       !- Frame and Divider Name
  ,                                       !- Multiplier
  ,                                       !- Number of Vertices
  14.4, 14.14, 17.1,                      !- X,Y,Z Vertex 1 {m}
  14.4, 14.14, 13.6,                      !- X,Y,Z Vertex 2 {m}
  14.4, 7.46, 13.6,                       !- X,Y,Z Vertex 3 {m}
  14.4, 7.46, 17.1;                       !- X,Y,Z Vertex 4 {m}

BuildingSurface:Detailed,
  Room_1414_dce579f1..Face15,             !- Name
  Wall,                                   !- Surface Type
  OpaqueConstruction_47cf3687,            !- Construction Name
  Room_1414_dce579f1,                     !- Zone Name
  Room_1414_dce579f1_Space,               !- Space Name
  Surface,                                !- Outside Boundary Condition
  Room_1423_007f3b82..Face3,              !- Outside Boundary Condition Object
  NoSun,                                  !- Sun Exposure
  NoWind,                                 !- Wind Exposure
  ,                                       !- View Factor to Ground
  ,                                       !- Number of Vertices
  93.6, 28.8, 18,                         !- X,Y,Z Vertex 1 {m}
  93.6, 28.8, 13.5,                       !- X,Y,Z Vertex 2 {m}
  72, 28.8, 13.5,                         !- X,Y,Z Vertex 3 {m}
  72, 28.8, 18;                           !- X,Y,Z Vertex 4 {m}

FenestrationSurface:Detailed,
  Ajd_Aperture_0525ddbe,                  !- Name
  Window,                                 !- Surface Type
  WindowConstruction_1dfe9b5d,            !- Construction Name
  Room_1414_dce579f1..Face15,             !- Building Surface Name
  Aperture_0525ddbe,                      !- Outside Boundary Condition Object
  ,                                       !- View Factor to Ground
  ,                                       !- Frame and Divider Name
  ,                                       !- Multiplier
  ,                                       !- Number of Vertices
  72.9, 28.8, 15.8,                       !- X,Y,Z Vertex 1 {m}
  72.9, 28.8, 13.7,                       !- X,Y,Z Vertex 2 {m}
  72.1, 28.8, 13.7,                       !- X,Y,Z Vertex 3 {m}
  72.1, 28.8, 15.8;                       !- X,Y,Z Vertex 4 {m}

FenestrationSurface:Detailed,
  Ajd_Aperture_1f44dc8a,                  !- Name
  Window,                                 !- Surface Type
  WindowConstruction_1dfe9b5d,            !- Construction Name
  Room_1414_dce579f1..Face15,             !- Building Surface Name
  Aperture_1f44dc8a,                      !- Outside Boundary Condition Object
  ,                                       !- View Factor to Ground
  ,                                       !- Frame and Divider Name
  ,                                       !- Multiplier
  ,                                       !- Number of Vertices
  80.1, 28.8, 15.8,                       !- X,Y,Z Vertex 1 {m}
  80.1, 28.8, 13.7,                       !- X,Y,Z Vertex 2 {m}
  79.3, 28.8, 13.7,                       !- X,Y,Z Vertex 3 {m}
  79.3, 28.8, 15.8;                       !- X,Y,Z Vertex 4 {m}

FenestrationSurface:Detailed,
  Ajd_Aperture_3c755504,                  !- Name
  Window,                                 !- Surface Type
  WindowConstruction_1dfe9b5d,            !- Construction Name
  Room_1414_dce579f1..Face15,             !- Building Surface Name
  Aperture_3c755504,                      !- Outside Boundary Condition Object
  ,                                       !- View Factor to Ground
  ,                                       !- Frame and Divider Name
  ,                                       !- Multiplier
  ,                                       !- Number of Vertices
  86.3, 28.8, 15.8,                       !- X,Y,Z Vertex 1 {m}
  86.3, 28.8, 13.7,                       !- X,Y,Z Vertex 2 {m}
  85.4, 28.8, 13.7,                       !- X,Y,Z Vertex 3 {m}
  85.4, 28.8, 15.8;                       !- X,Y,Z Vertex 4 {m}

FenestrationSurface:Detailed,
  Ajd_Aperture_71716395,                  !- Name
  Window,                                 !- Surface Type
  WindowConstruction_1dfe9b5d,            !- Construction Name
  Room_1414_dce579f1..Face15,             !- Building Surface Name
  Aperture_71716395,                      !- Outside Boundary Condition Object
  ,                                       !- View Factor to Ground
  ,                                       !- Frame and Divider Name
  ,                                       !- Multiplier
  ,                                       !- Number of Vertices
  87.3, 28.8, 15.8,                       !- X,Y,Z Vertex 1 {m}
  87.3, 28.8, 13.7,                       !- X,Y,Z Vertex 2 {m}
  86.5, 28.8, 13.7,                       !- X,Y,Z Vertex 3 {m}
  86.5, 28.8, 15.8;                       !- X,Y,Z Vertex 4 {m}

FenestrationSurface:Detailed,
  Ajd_Aperture_8acdaf3c,                  !- Name
  Window,                                 !- Surface Type
  WindowConstruction_1dfe9b5d,            !- Construction Name
  Room_1414_dce579f1..Face15,             !- Building Surface Name
  Aperture_8acdaf3c,                      !- Outside Boundary Condition Object
  ,                                       !- View Factor to Ground
  ,                                       !- Frame and Divider Name
  ,                                       !- Multiplier
  ,                                       !- Number of Vertices
  79.1, 28.8, 15.8,                       !- X,Y,Z Vertex 1 {m}
  79.1, 28.8, 13.7,                       !- X,Y,Z Vertex 2 {m}
  78.2, 28.8, 13.7,                       !- X,Y,Z Vertex 3 {m}
  78.2, 28.8, 15.8;                       !- X,Y,Z Vertex 4 {m}

FenestrationSurface:Detailed,
  Ajd_Aperture_beaa9252,                  !- Name
  Window,                                 !- Surface Type
  WindowConstruction_1dfe9b5d,            !- Construction Name
  Room_1414_dce579f1..Face15,             !- Building Surface Name
  Aperture_beaa9252,                      !- Outside Boundary Condition Object
  ,                                       !- View Factor to Ground
  ,                                       !- Frame and Divider Name
  ,                                       !- Multiplier
  ,                                       !- Number of Vertices
  93.5, 28.8, 15.8,                       !- X,Y,Z Vertex 1 {m}
  93.5, 28.8, 13.7,                       !- X,Y,Z Vertex 2 {m}
  92.6, 28.8, 13.7,                       !- X,Y,Z Vertex 3 {m}
  92.6, 28.8, 15.8;                       !- X,Y,Z Vertex 4 {m}

BuildingSurface:Detailed,
  Room_1414_dce579f1..Face16,             !- Name
  Wall,                                   !- Surface Type
  OpaqueConstruction_47cf3687,            !- Construction Name
  Room_1414_dce579f1,                     !- Zone Name
  Room_1414_dce579f1_Space,               !- Space Name
  Surface,                                !- Outside Boundary Condition
  Room_1422_86173f66..Face3,              !- Outside Boundary Condition Object
  NoSun,                                  !- Sun Exposure
  NoWind,                                 !- Wind Exposure
  ,                                       !- View Factor to Ground
  ,                                       !- Number of Vertices
  36, 28.8, 18,                           !- X,Y,Z Vertex 1 {m}
  36, 28.8, 13.5,                         !- X,Y,Z Vertex 2 {m}
  14.4, 28.8, 13.5,                       !- X,Y,Z Vertex 3 {m}
  14.4, 28.8, 18;                         !- X,Y,Z Vertex 4 {m}

FenestrationSurface:Detailed,
  Aperture_709ff042,                      !- Name
  Window,                                 !- Surface Type
  WindowConstruction_1dfe9b5d,            !- Construction Name
  Room_1414_dce579f1..Face16,             !- Building Surface Name
  Ajd_Aperture_709ff042,                  !- Outside Boundary Condition Object
  ,                                       !- View Factor to Ground
  ,                                       !- Frame and Divider Name
  ,                                       !- Multiplier
  ,                                       !- Number of Vertices
  15.3, 28.8, 15.8,                       !- X,Y,Z Vertex 1 {m}
  15.3, 28.8, 13.7,                       !- X,Y,Z Vertex 2 {m}
  14.5, 28.8, 13.7,                       !- X,Y,Z Vertex 3 {m}
  14.5, 28.8, 15.8;                       !- X,Y,Z Vertex 4 {m}

FenestrationSurface:Detailed,
  Aperture_98a8fd06,                      !- Name
  Window,                                 !- Surface Type
  WindowConstruction_1dfe9b5d,            !- Construction Name
  Room_1414_dce579f1..Face16,             !- Building Surface Name
  Ajd_Aperture_98a8fd06,                  !- Outside Boundary Condition Object
  ,                                       !- View Factor to Ground
  ,                                       !- Frame and Divider Name
  ,                                       !- Multiplier
  ,                                       !- Number of Vertices
  29.7, 28.8, 15.8,                       !- X,Y,Z Vertex 1 {m}
  29.7, 28.8, 13.7,                       !- X,Y,Z Vertex 2 {m}
  28.9, 28.8, 13.7,                       !- X,Y,Z Vertex 3 {m}
  28.9, 28.8, 15.8;                       !- X,Y,Z Vertex 4 {m}

FenestrationSurface:Detailed,
  Aperture_a0274559,                      !- Name
  Window,                                 !- Surface Type
  WindowConstruction_1dfe9b5d,            !- Construction Name
  Room_1414_dce579f1..Face16,             !- Building Surface Name
  Ajd_Aperture_a0274559,                  !- Outside Boundary Condition Object
  ,                                       !- View Factor to Ground
  ,                                       !- Frame and Divider Name
  ,                                       !- Multiplier
  ,                                       !- Number of Vertices
  21.5, 28.8, 15.8,                       !- X,Y,Z Vertex 1 {m}
  21.5, 28.8, 13.7,                       !- X,Y,Z Vertex 2 {m}
  20.6, 28.8, 13.7,                       !- X,Y,Z Vertex 3 {m}
  20.6, 28.8, 15.8;                       !- X,Y,Z Vertex 4 {m}

FenestrationSurface:Detailed,
  Aperture_a424fbd2,                      !- Name
  Window,                                 !- Surface Type
  WindowConstruction_1dfe9b5d,            !- Construction Name
  Room_1414_dce579f1..Face16,             !- Building Surface Name
  Ajd_Aperture_a424fbd2,                  !- Outside Boundary Condition Object
  ,                                       !- View Factor to Ground
  ,                                       !- Frame and Divider Name
  ,                                       !- Multiplier
  ,                                       !- Number of Vertices
  28.7, 28.8, 15.8,                       !- X,Y,Z Vertex 1 {m}
  28.7, 28.8, 13.7,                       !- X,Y,Z Vertex 2 {m}
  27.8, 28.8, 13.7,                       !- X,Y,Z Vertex 3 {m}
  27.8, 28.8, 15.8;                       !- X,Y,Z Vertex 4 {m}

FenestrationSurface:Detailed,
  Aperture_d766b619,                      !- Name
  Window,                                 !- Surface Type
  WindowConstruction_1dfe9b5d,            !- Construction Name
  Room_1414_dce579f1..Face16,             !- Building Surface Name
  Ajd_Aperture_d766b619,                  !- Outside Boundary Condition Object
  ,                                       !- View Factor to Ground
  ,                                       !- Frame and Divider Name
  ,                                       !- Multiplier
  ,                                       !- Number of Vertices
  22.5, 28.8, 15.8,                       !- X,Y,Z Vertex 1 {m}
  22.5, 28.8, 13.7,                       !- X,Y,Z Vertex 2 {m}
  21.7, 28.8, 13.7,                       !- X,Y,Z Vertex 3 {m}
  21.7, 28.8, 15.8;                       !- X,Y,Z Vertex 4 {m}

FenestrationSurface:Detailed,
  Aperture_ec32b2c3,                      !- Name
  Window,                                 !- Surface Type
  WindowConstruction_1dfe9b5d,            !- Construction Name
  Room_1414_dce579f1..Face16,             !- Building Surface Name
  Ajd_Aperture_ec32b2c3,                  !- Outside Boundary Condition Object
  ,                                       !- View Factor to Ground
  ,                                       !- Frame and Divider Name
  ,                                       !- Multiplier
  ,                                       !- Number of Vertices
  35.9, 28.8, 15.8,                       !- X,Y,Z Vertex 1 {m}
  35.9, 28.8, 13.7,                       !- X,Y,Z Vertex 2 {m}
  35, 28.8, 13.7,                         !- X,Y,Z Vertex 3 {m}
  35, 28.8, 15.8;                         !- X,Y,Z Vertex 4 {m}

BuildingSurface:Detailed,
  Room_1414_dce579f1..Face17,             !- Name
  Wall,                                   !- Surface Type
  OpaqueConstruction_47cf3687,            !- Construction Name
  Room_1414_dce579f1,                     !- Zone Name
  Room_1414_dce579f1_Space,               !- Space Name
  Outdoors,                               !- Outside Boundary Condition
  ,                                       !- Outside Boundary Condition Object
  SunExposed,                             !- Sun Exposure
  WindExposed,                            !- Wind Exposure
  ,                                       !- View Factor to Ground
  ,                                       !- Number of Vertices
  72, 72, 18,                             !- X,Y,Z Vertex 1 {m}
  72, 72, 13.5,                           !- X,Y,Z Vertex 2 {m}
  52.776, 72, 13.5,                       !- X,Y,Z Vertex 3 {m}
  52.776, 72, 18;                         !- X,Y,Z Vertex 4 {m}

FenestrationSurface:Detailed,
  Aperture_ba2b676c,                      !- Name
  Window,                                 !- Surface Type
  WindowConstruction_1dfe9b5d,            !- Construction Name
  Room_1414_dce579f1..Face17,             !- Building Surface Name
  ,                                       !- Outside Boundary Condition Object
  ,                                       !- View Factor to Ground
  ,                                       !- Frame and Divider Name
  ,                                       !- Multiplier
  ,                                       !- Number of Vertices
  64.54, 72, 17.1,                        !- X,Y,Z Vertex 1 {m}
  64.54, 72, 13.6,                        !- X,Y,Z Vertex 2 {m}
  57.86, 72, 13.6,                        !- X,Y,Z Vertex 3 {m}
  57.86, 72, 17.1;                        !- X,Y,Z Vertex 4 {m}

FenestrationSurface:Detailed,
  Aperture_dde782bc,                      !- Name
  Window,                                 !- Surface Type
  WindowConstruction_1dfe9b5d,            !- Construction Name
  Room_1414_dce579f1..Face17,             !- Building Surface Name
  ,                                       !- Outside Boundary Condition Object
  ,                                       !- View Factor to Ground
  ,                                       !- Frame and Divider Name
  ,                                       !- Multiplier
  ,                                       !- Number of Vertices
  71.74, 72, 17.1,                        !- X,Y,Z Vertex 1 {m}
  71.74, 72, 13.6,                        !- X,Y,Z Vertex 2 {m}
  65.06, 72, 13.6,                        !- X,Y,Z Vertex 3 {m}
  65.06, 72, 17.1;                        !- X,Y,Z Vertex 4 {m}

FenestrationSurface:Detailed,
  Aperture_e7840a21,                      !- Name
  Window,                                 !- Surface Type
  WindowConstruction_1dfe9b5d,            !- Construction Name
  Room_1414_dce579f1..Face17,             !- Building Surface Name
  ,                                       !- Outside Boundary Condition Object
  ,                                       !- View Factor to Ground
  ,                                       !- Frame and Divider Name
  ,                                       !- Multiplier
  ,                                       !- Number of Vertices
  57.34, 72, 17.1,                        !- X,Y,Z Vertex 1 {m}
  57.34, 72, 13.6,                        !- X,Y,Z Vertex 2 {m}
  53.036, 72, 13.6,                       !- X,Y,Z Vertex 3 {m}
  53.036, 72, 17.1;                       !- X,Y,Z Vertex 4 {m}

BuildingSurface:Detailed,
  Room_1414_dce579f1..Face18,             !- Name
  Wall,                                   !- Surface Type
  OpaqueConstruction_47cf3687,            !- Construction Name
  Room_1414_dce579f1,                     !- Zone Name
  Room_1414_dce579f1_Space,               !- Space Name
  Surface,                                !- Outside Boundary Condition
  Room_1423_007f3b82..Face4,              !- Outside Boundary Condition Object
  NoSun,                                  !- Sun Exposure
  NoWind,                                 !- Wind Exposure
  ,                                       !- View Factor to Ground
  ,                                       !- Number of Vertices
  72, 28.8, 18,                           !- X,Y,Z Vertex 1 {m}
  72, 28.8, 13.5,                         !- X,Y,Z Vertex 2 {m}
  72, 43.2, 13.5,                         !- X,Y,Z Vertex 3 {m}
  72, 43.2, 18;                           !- X,Y,Z Vertex 4 {m}

FenestrationSurface:Detailed,
  Ajd_Aperture_366df5b2,                  !- Name
  Window,                                 !- Surface Type
  WindowConstruction_1dfe9b5d,            !- Construction Name
  Room_1414_dce579f1..Face18,             !- Building Surface Name
  Aperture_366df5b2,                      !- Outside Boundary Condition Object
  ,                                       !- View Factor to Ground
  ,                                       !- Frame and Divider Name
  ,                                       !- Multiplier
  ,                                       !- Number of Vertices
  72, 28.9, 15.8,                         !- X,Y,Z Vertex 1 {m}
  72, 28.9, 13.7,                         !- X,Y,Z Vertex 2 {m}
  72, 29.7, 13.7,                         !- X,Y,Z Vertex 3 {m}
  72, 29.7, 15.8;                         !- X,Y,Z Vertex 4 {m}

FenestrationSurface:Detailed,
  Ajd_Aperture_4a29aad6,                  !- Name
  Window,                                 !- Surface Type
  WindowConstruction_1dfe9b5d,            !- Construction Name
  Room_1414_dce579f1..Face18,             !- Building Surface Name
  Aperture_4a29aad6,                      !- Outside Boundary Condition Object
  ,                                       !- View Factor to Ground
  ,                                       !- Frame and Divider Name
  ,                                       !- Multiplier
  ,                                       !- Number of Vertices
  72, 42.2, 15.8,                         !- X,Y,Z Vertex 1 {m}
  72, 42.2, 13.7,                         !- X,Y,Z Vertex 2 {m}
  72, 43.1, 13.7,                         !- X,Y,Z Vertex 3 {m}
  72, 43.1, 15.8;                         !- X,Y,Z Vertex 4 {m}

FenestrationSurface:Detailed,
  Ajd_Aperture_5b9b9e46,                  !- Name
  Window,                                 !- Surface Type
  WindowConstruction_1dfe9b5d,            !- Construction Name
  Room_1414_dce579f1..Face18,             !- Building Surface Name
  Aperture_5b9b9e46,                      !- Outside Boundary Condition Object
  ,                                       !- View Factor to Ground
  ,                                       !- Frame and Divider Name
  ,                                       !- Multiplier
  ,                                       !- Number of Vertices
  72, 36.1, 15.8,                         !- X,Y,Z Vertex 1 {m}
  72, 36.1, 13.7,                         !- X,Y,Z Vertex 2 {m}
  72, 36.9, 13.7,                         !- X,Y,Z Vertex 3 {m}
  72, 36.9, 15.8;                         !- X,Y,Z Vertex 4 {m}

FenestrationSurface:Detailed,
  Ajd_Aperture_87e6690d,                  !- Name
  Window,                                 !- Surface Type
  WindowConstruction_1dfe9b5d,            !- Construction Name
  Room_1414_dce579f1..Face18,             !- Building Surface Name
  Aperture_87e6690d,                      !- Outside Boundary Condition Object
  ,                                       !- View Factor to Ground
  ,                                       !- Frame and Divider Name
  ,                                       !- Multiplier
  ,                                       !- Number of Vertices
  72, 35, 15.8,                           !- X,Y,Z Vertex 1 {m}
  72, 35, 13.7,                           !- X,Y,Z Vertex 2 {m}
  72, 35.9, 13.7,                         !- X,Y,Z Vertex 3 {m}
  72, 35.9, 15.8;                         !- X,Y,Z Vertex 4 {m}

BuildingSurface:Detailed,
  Room_1414_dce579f1..Face2,              !- Name
  Floor,                                  !- Surface Type
  OpaqueConstruction_47cf3687,            !- Construction Name
  Room_1414_dce579f1,                     !- Zone Name
  Room_1414_dce579f1_Space,               !- Space Name
  Outdoors,                               !- Outside Boundary Condition
  ,                                       !- Outside Boundary Condition Object
  SunExposed,                             !- Sun Exposure
  WindExposed,                            !- Wind Exposure
  ,                                       !- View Factor to Ground
  ,                                       !- Number of Vertices
  72, 72, 13.5,                           !- X,Y,Z Vertex 1 {m}
  72, 28.8, 13.5,                         !- X,Y,Z Vertex 2 {m}
  52.776, 28.8, 13.5,                     !- X,Y,Z Vertex 3 {m}
  52.776, 72, 13.5;                       !- X,Y,Z Vertex 4 {m}

BuildingSurface:Detailed,
  Room_1414_dce579f1..Face3,              !- Name
  Floor,                                  !- Surface Type
  OpaqueConstruction_47cf3687,            !- Construction Name
  Room_1414_dce579f1,                     !- Zone Name
  Room_1414_dce579f1_Space,               !- Space Name
  Outdoors,                               !- Outside Boundary Condition
  ,                                       !- Outside Boundary Condition Object
  SunExposed,                             !- Sun Exposure
  WindExposed,                            !- Wind Exposure
  ,                                       !- View Factor to Ground
  ,                                       !- Number of Vertices
  72, 28.8, 13.5,                         !- X,Y,Z Vertex 1 {m}
  72, -9.99200722162641e-16, 13.5,        !- X,Y,Z Vertex 2 {m}
  52.776, -4.99600361081327e-16, 13.5,    !- X,Y,Z Vertex 3 {m}
  52.776, 28.8, 13.5;                     !- X,Y,Z Vertex 4 {m}

BuildingSurface:Detailed,
  Room_1414_dce579f1..Face4,              !- Name
  Ceiling,                                !- Surface Type
  OpaqueConstruction_47cf3687,            !- Construction Name
  Room_1414_dce579f1,                     !- Zone Name
  Room_1414_dce579f1_Space,               !- Space Name
  Surface,                                !- Outside Boundary Condition
  Room_1415_de86df45..Face0,              !- Outside Boundary Condition Object
  NoSun,                                  !- Sun Exposure
  NoWind,                                 !- Wind Exposure
  ,                                       !- View Factor to Ground
  ,                                       !- Number of Vertices
  14.4, 28.8, 18,                         !- X,Y,Z Vertex 1 {m}
  14.4, -9.99200722162641e-16, 18,        !- X,Y,Z Vertex 2 {m}
  52.776, 1.27675647831894e-15, 18,       !- X,Y,Z Vertex 3 {m}
  52.776, 28.8, 18;                       !- X,Y,Z Vertex 4 {m}

BuildingSurface:Detailed,
  Room_1414_dce579f1..Face5,              !- Name
  Ceiling,                                !- Surface Type
  OpaqueConstruction_47cf3687,            !- Construction Name
  Room_1414_dce579f1,                     !- Zone Name
  Room_1414_dce579f1_Space,               !- Space Name
  Surface,                                !- Outside Boundary Condition
  Room_1415_de86df45..Face1,              !- Outside Boundary Condition Object
  NoSun,                                  !- Sun Exposure
  NoWind,                                 !- Wind Exposure
  ,                                       !- View Factor to Ground
  ,                                       !- Number of Vertices
  72, 28.8, 18,                           !- X,Y,Z Vertex 1 {m}
  72, -9.99200722162641e-16, 18,          !- X,Y,Z Vertex 2 {m}
  108, -9.99200722162641e-16, 18,         !- X,Y,Z Vertex 3 {m}
  108, 28.8, 18;                          !- X,Y,Z Vertex 4 {m}

BuildingSurface:Detailed,
  Room_1414_dce579f1..Face6,              !- Name
  Ceiling,                                !- Surface Type
  OpaqueConstruction_47cf3687,            !- Construction Name
  Room_1414_dce579f1,                     !- Zone Name
  Room_1414_dce579f1_Space,               !- Space Name
  Surface,                                !- Outside Boundary Condition
  Room_1415_de86df45..Face2,              !- Outside Boundary Condition Object
  NoSun,                                  !- Sun Exposure
  NoWind,                                 !- Wind Exposure
  ,                                       !- View Factor to Ground
  ,                                       !- Number of Vertices
  52.776, 72, 18,                         !- X,Y,Z Vertex 1 {m}
  52.776, 28.8, 18,                       !- X,Y,Z Vertex 2 {m}
  72, 28.8, 18,                           !- X,Y,Z Vertex 3 {m}
  72, 72, 18;                             !- X,Y,Z Vertex 4 {m}

BuildingSurface:Detailed,
  Room_1414_dce579f1..Face7,              !- Name
  Ceiling,                                !- Surface Type
  OpaqueConstruction_47cf3687,            !- Construction Name
  Room_1414_dce579f1,                     !- Zone Name
  Room_1414_dce579f1_Space,               !- Space Name
  Surface,                                !- Outside Boundary Condition
  Room_1415_de86df45..Face3,              !- Outside Boundary Condition Object
  NoSun,                                  !- Sun Exposure
  NoWind,                                 !- Wind Exposure
  ,                                       !- View Factor to Ground
  ,                                       !- Number of Vertices
  52.776, 28.8, 18,                       !- X,Y,Z Vertex 1 {m}
  52.776, 1.27675647831894e-15, 18,       !- X,Y,Z Vertex 2 {m}
  72, -9.99200722162641e-16, 18,          !- X,Y,Z Vertex 3 {m}
  72, 28.8, 18;                           !- X,Y,Z Vertex 4 {m}

BuildingSurface:Detailed,
  Room_1414_dce579f1..Face8,              !- Name
  Wall,                                   !- Surface Type
  OpaqueConstruction_47cf3687,            !- Construction Name
  Room_1414_dce579f1,                     !- Zone Name
  Room_1414_dce579f1_Space,               !- Space Name
  Outdoors,                               !- Outside Boundary Condition
  ,                                       !- Outside Boundary Condition Object
  SunExposed,                             !- Sun Exposure
  WindExposed,                            !- Wind Exposure
  ,                                       !- View Factor to Ground
  ,                                       !- Number of Vertices
  14.4, -9.99200722162641e-16, 18,        !- X,Y,Z Vertex 1 {m}
  14.4, -9.99200722162641e-16, 13.5,      !- X,Y,Z Vertex 2 {m}
  108, -9.99200722162641e-16, 13.5,       !- X,Y,Z Vertex 3 {m}
  108, -9.99200722162641e-16, 18;         !- X,Y,Z Vertex 4 {m}

FenestrationSurface:Detailed,
  Aperture_0974dead,                      !- Name
  Window,                                 !- Surface Type
  WindowConstruction_1dfe9b5d,            !- Construction Name
  Room_1414_dce579f1..Face8,              !- Building Surface Name
  ,                                       !- Outside Boundary Condition Object
  ,                                       !- View Factor to Ground
  ,                                       !- Frame and Divider Name
  ,                                       !- Multiplier
  ,                                       !- Number of Vertices
  50.66, -1.24825363720596e-15, 17.1,     !- X,Y,Z Vertex 1 {m}
  50.66, -1.24825363720596e-15, 13.6,     !- X,Y,Z Vertex 2 {m}
  57.34, -1.28390887665065e-15, 13.6,     !- X,Y,Z Vertex 3 {m}
  57.34, -1.28390887665065e-15, 17.1;     !- X,Y,Z Vertex 4 {m}

FenestrationSurface:Detailed,
  Aperture_13438af8,                      !- Name
  Window,                                 !- Surface Type
  WindowConstruction_1dfe9b5d,            !- Construction Name
  Room_1414_dce579f1..Face8,              !- Building Surface Name
  ,                                       !- Outside Boundary Condition Object
  ,                                       !- View Factor to Ground
  ,                                       !- Frame and Divider Name
  ,                                       !- Multiplier
  ,                                       !- Number of Vertices
  29.06, -1.13296124618719e-15, 17.1,     !- X,Y,Z Vertex 1 {m}
  29.06, -1.13296124618719e-15, 13.6,     !- X,Y,Z Vertex 2 {m}
  35.74, -1.16861648563188e-15, 13.6,     !- X,Y,Z Vertex 3 {m}
  35.74, -1.16861648563188e-15, 17.1;     !- X,Y,Z Vertex 4 {m}

FenestrationSurface:Detailed,
  Aperture_151b86a1,                      !- Name
  Window,                                 !- Surface Type
  WindowConstruction_1dfe9b5d,            !- Construction Name
  Room_1414_dce579f1..Face8,              !- Building Surface Name
  ,                                       !- Outside Boundary Condition Object
  ,                                       !- View Factor to Ground
  ,                                       !- Frame and Divider Name
  ,                                       !- Multiplier
  ,                                       !- Number of Vertices
  21.86, -1.09453044918094e-15, 17.1,     !- X,Y,Z Vertex 1 {m}
  21.86, -1.09453044918094e-15, 13.6,     !- X,Y,Z Vertex 2 {m}
  28.54, -1.13018568862563e-15, 13.6,     !- X,Y,Z Vertex 3 {m}
  28.54, -1.13018568862563e-15, 17.1;     !- X,Y,Z Vertex 4 {m}

FenestrationSurface:Detailed,
  Aperture_17315994,                      !- Name
  Window,                                 !- Surface Type
  WindowConstruction_1dfe9b5d,            !- Construction Name
  Room_1414_dce579f1..Face8,              !- Building Surface Name
  ,                                       !- Outside Boundary Condition Object
  ,                                       !- View Factor to Ground
  ,                                       !- Frame and Divider Name
  ,                                       !- Multiplier
  ,                                       !- Number of Vertices
  86.66, -1.44040762223723e-15, 17.1,     !- X,Y,Z Vertex 1 {m}
  86.66, -1.44040762223723e-15, 13.6,     !- X,Y,Z Vertex 2 {m}
  93.34, -1.47606286168193e-15, 13.6,     !- X,Y,Z Vertex 3 {m}
  93.34, -1.47606286168193e-15, 17.1;     !- X,Y,Z Vertex 4 {m}

FenestrationSurface:Detailed,
  Aperture_229ffdac,                      !- Name
  Window,                                 !- Surface Type
  WindowConstruction_1dfe9b5d,            !- Construction Name
  Room_1414_dce579f1..Face8,              !- Building Surface Name
  ,                                       !- Outside Boundary Condition Object
  ,                                       !- View Factor to Ground
  ,                                       !- Frame and Divider Name
  ,                                       !- Multiplier
  ,                                       !- Number of Vertices
  65.06, -1.32511523121847e-15, 17.1,     !- X,Y,Z Vertex 1 {m}
  65.06, -1.32511523121847e-15, 13.6,     !- X,Y,Z Vertex 2 {m}
  71.74, -1.36077047066316e-15, 13.6,     !- X,Y,Z Vertex 3 {m}
  71.74, -1.36077047066316e-15, 17.1;     !- X,Y,Z Vertex 4 {m}

FenestrationSurface:Detailed,
  Aperture_32326a42,                      !- Name
  Window,                                 !- Surface Type
  WindowConstruction_1dfe9b5d,            !- Construction Name
  Room_1414_dce579f1..Face8,              !- Building Surface Name
  ,                                       !- Outside Boundary Condition Object
  ,                                       !- View Factor to Ground
  ,                                       !- Frame and Divider Name
  ,                                       !- Multiplier
  ,                                       !- Number of Vertices
  14.66, -1.05609965217468e-15, 17.1,     !- X,Y,Z Vertex 1 {m}
  14.66, -1.05609965217468e-15, 13.6,     !- X,Y,Z Vertex 2 {m}
  21.34, -1.09175489161937e-15, 13.6,     !- X,Y,Z Vertex 3 {m}
  21.34, -1.09175489161937e-15, 17.1;     !- X,Y,Z Vertex 4 {m}

FenestrationSurface:Detailed,
  Aperture_343bf03a,                      !- Name
  Window,                                 !- Surface Type
  WindowConstruction_1dfe9b5d,            !- Construction Name
  Room_1414_dce579f1..Face8,              !- Building Surface Name
  ,                                       !- Outside Boundary Condition Object
  ,                                       !- View Factor to Ground
  ,                                       !- Frame and Divider Name
  ,                                       !- Multiplier
  ,                                       !- Number of Vertices
  101.06, -1.51726921624975e-15, 17.1,    !- X,Y,Z Vertex 1 {m}
  101.06, -1.51726921624975e-15, 13.6,    !- X,Y,Z Vertex 2 {m}
  107.74, -1.55292445569444e-15, 13.6,    !- X,Y,Z Vertex 3 {m}
  107.74, -1.55292445569444e-15, 17.1;    !- X,Y,Z Vertex 4 {m}

FenestrationSurface:Detailed,
  Aperture_3d98c72e,                      !- Name
  Window,                                 !- Surface Type
  WindowConstruction_1dfe9b5d,            !- Construction Name
  Room_1414_dce579f1..Face8,              !- Building Surface Name
  ,                                       !- Outside Boundary Condition Object
  ,                                       !- View Factor to Ground
  ,                                       !- Frame and Divider Name
  ,                                       !- Multiplier
  ,                                       !- Number of Vertices
  57.86, -1.28668443421221e-15, 17.1,     !- X,Y,Z Vertex 1 {m}
  57.86, -1.28668443421221e-15, 13.6,     !- X,Y,Z Vertex 2 {m}
  64.54, -1.32233967365691e-15, 13.6,     !- X,Y,Z Vertex 3 {m}
  64.54, -1.32233967365691e-15, 17.1;     !- X,Y,Z Vertex 4 {m}

FenestrationSurface:Detailed,
  Aperture_a48ee26c,                      !- Name
  Window,                                 !- Surface Type
  WindowConstruction_1dfe9b5d,            !- Construction Name
  Room_1414_dce579f1..Face8,              !- Building Surface Name
  ,                                       !- Outside Boundary Condition Object
  ,                                       !- View Factor to Ground
  ,                                       !- Frame and Divider Name
  ,                                       !- Multiplier
  ,                                       !- Number of Vertices
  79.46, -1.40197682523098e-15, 17.1,     !- X,Y,Z Vertex 1 {m}
  79.46, -1.40197682523098e-15, 13.6,     !- X,Y,Z Vertex 2 {m}
  86.14, -1.43763206467567e-15, 13.6,     !- X,Y,Z Vertex 3 {m}
  86.14, -1.43763206467567e-15, 17.1;     !- X,Y,Z Vertex 4 {m}

FenestrationSurface:Detailed,
  Aperture_d488ef15,                      !- Name
  Window,                                 !- Surface Type
  WindowConstruction_1dfe9b5d,            !- Construction Name
  Room_1414_dce579f1..Face8,              !- Building Surface Name
  ,                                       !- Outside Boundary Condition Object
  ,                                       !- View Factor to Ground
  ,                                       !- Frame and Divider Name
  ,                                       !- Multiplier
  ,                                       !- Number of Vertices
  93.86, -1.47883841924349e-15, 17.1,     !- X,Y,Z Vertex 1 {m}
  93.86, -1.47883841924349e-15, 13.6,     !- X,Y,Z Vertex 2 {m}
  100.54, -1.51449365868818e-15, 13.6,    !- X,Y,Z Vertex 3 {m}
  100.54, -1.51449365868818e-15, 17.1;    !- X,Y,Z Vertex 4 {m}

FenestrationSurface:Detailed,
  Aperture_de056246,                      !- Name
  Window,                                 !- Surface Type
  WindowConstruction_1dfe9b5d,            !- Construction Name
  Room_1414_dce579f1..Face8,              !- Building Surface Name
  ,                                       !- Outside Boundary Condition Object
  ,                                       !- View Factor to Ground
  ,                                       !- Frame and Divider Name
  ,                                       !- Multiplier
  ,                                       !- Number of Vertices
  72.26, -1.36354602822472e-15, 17.1,     !- X,Y,Z Vertex 1 {m}
  72.26, -1.36354602822472e-15, 13.6,     !- X,Y,Z Vertex 2 {m}
  78.94, -1.39920126766942e-15, 13.6,     !- X,Y,Z Vertex 3 {m}
  78.94, -1.39920126766942e-15, 17.1;     !- X,Y,Z Vertex 4 {m}

FenestrationSurface:Detailed,
  Aperture_ec8ff83f,                      !- Name
  Window,                                 !- Surface Type
  WindowConstruction_1dfe9b5d,            !- Construction Name
  Room_1414_dce579f1..Face8,              !- Building Surface Name
  ,                                       !- Outside Boundary Condition Object
  ,                                       !- View Factor to Ground
  ,                                       !- Frame and Divider Name
  ,                                       !- Multiplier
  ,                                       !- Number of Vertices
  43.46, -1.2098228401997e-15, 17.1,      !- X,Y,Z Vertex 1 {m}
  43.46, -1.2098228401997e-15, 13.6,      !- X,Y,Z Vertex 2 {m}
  50.14, -1.24547807964439e-15, 13.6,     !- X,Y,Z Vertex 3 {m}
  50.14, -1.24547807964439e-15, 17.1;     !- X,Y,Z Vertex 4 {m}

FenestrationSurface:Detailed,
  Aperture_f39f4b16,                      !- Name
  Window,                                 !- Surface Type
  WindowConstruction_1dfe9b5d,            !- Construction Name
  Room_1414_dce579f1..Face8,              !- Building Surface Name
  ,                                       !- Outside Boundary Condition Object
  ,                                       !- View Factor to Ground
  ,                                       !- Frame and Divider Name
  ,                                       !- Multiplier
  ,                                       !- Number of Vertices
  36.26, -1.17139204319345e-15, 17.1,     !- X,Y,Z Vertex 1 {m}
  36.26, -1.17139204319345e-15, 13.6,     !- X,Y,Z Vertex 2 {m}
  42.94, -1.20704728263814e-15, 13.6,     !- X,Y,Z Vertex 3 {m}
  42.94, -1.20704728263814e-15, 17.1;     !- X,Y,Z Vertex 4 {m}

BuildingSurface:Detailed,
  Room_1414_dce579f1..Face9,              !- Name
  Wall,                                   !- Surface Type
  OpaqueConstruction_47cf3687,            !- Construction Name
  Room_1414_dce579f1,                     !- Zone Name
  Room_1414_dce579f1_Space,               !- Space Name
  Outdoors,                               !- Outside Boundary Condition
  ,                                       !- Outside Boundary Condition Object
  SunExposed,                             !- Sun Exposure
  WindExposed,                            !- Wind Exposure
  ,                                       !- View Factor to Ground
  ,                                       !- Number of Vertices
  52.776, 72, 18,                         !- X,Y,Z Vertex 1 {m}
  52.776, 72, 13.5,                       !- X,Y,Z Vertex 2 {m}
  52.776, 28.8, 13.5,                     !- X,Y,Z Vertex 3 {m}
  52.776, 28.8, 18;                       !- X,Y,Z Vertex 4 {m}

FenestrationSurface:Detailed,
  Aperture_176e475b,                      !- Name
  Window,                                 !- Surface Type
  WindowConstruction_1dfe9b5d,            !- Construction Name
  Room_1414_dce579f1..Face9,              !- Building Surface Name
  ,                                       !- Outside Boundary Condition Object
  ,                                       !- View Factor to Ground
  ,                                       !- Frame and Divider Name
  ,                                       !- Multiplier
  ,                                       !- Number of Vertices
  52.776, 50.14, 17.1,                    !- X,Y,Z Vertex 1 {m}
  52.776, 50.14, 13.6,                    !- X,Y,Z Vertex 2 {m}
  52.776, 43.46, 13.6,                    !- X,Y,Z Vertex 3 {m}
  52.776, 43.46, 17.1;                    !- X,Y,Z Vertex 4 {m}

FenestrationSurface:Detailed,
  Aperture_28f55400,                      !- Name
  Window,                                 !- Surface Type
  WindowConstruction_1dfe9b5d,            !- Construction Name
  Room_1414_dce579f1..Face9,              !- Building Surface Name
  ,                                       !- Outside Boundary Condition Object
  ,                                       !- View Factor to Ground
  ,                                       !- Frame and Divider Name
  ,                                       !- Multiplier
  ,                                       !- Number of Vertices
  52.776, 57.34, 17.1,                    !- X,Y,Z Vertex 1 {m}
  52.776, 57.34, 13.6,                    !- X,Y,Z Vertex 2 {m}
  52.776, 50.66, 13.6,                    !- X,Y,Z Vertex 3 {m}
  52.776, 50.66, 17.1;                    !- X,Y,Z Vertex 4 {m}

FenestrationSurface:Detailed,
  Aperture_4631f49b,                      !- Name
  Window,                                 !- Surface Type
  WindowConstruction_1dfe9b5d,            !- Construction Name
  Room_1414_dce579f1..Face9,              !- Building Surface Name
  ,                                       !- Outside Boundary Condition Object
  ,                                       !- View Factor to Ground
  ,                                       !- Frame and Divider Name
  ,                                       !- Multiplier
  ,                                       !- Number of Vertices
  52.776, 35.74, 17.1,                    !- X,Y,Z Vertex 1 {m}
  52.776, 35.74, 13.6,                    !- X,Y,Z Vertex 2 {m}
  52.776, 29.06, 13.6,                    !- X,Y,Z Vertex 3 {m}
  52.776, 29.06, 17.1;                    !- X,Y,Z Vertex 4 {m}

FenestrationSurface:Detailed,
  Aperture_8f4f424b,                      !- Name
  Window,                                 !- Surface Type
  WindowConstruction_1dfe9b5d,            !- Construction Name
  Room_1414_dce579f1..Face9,              !- Building Surface Name
  ,                                       !- Outside Boundary Condition Object
  ,                                       !- View Factor to Ground
  ,                                       !- Frame and Divider Name
  ,                                       !- Multiplier
  ,                                       !- Number of Vertices
  52.776, 71.74, 17.1,                    !- X,Y,Z Vertex 1 {m}
  52.776, 71.74, 13.6,                    !- X,Y,Z Vertex 2 {m}
  52.776, 65.06, 13.6,                    !- X,Y,Z Vertex 3 {m}
  52.776, 65.06, 17.1;                    !- X,Y,Z Vertex 4 {m}

FenestrationSurface:Detailed,
  Aperture_94a8652e,                      !- Name
  Window,                                 !- Surface Type
  WindowConstruction_1dfe9b5d,            !- Construction Name
  Room_1414_dce579f1..Face9,              !- Building Surface Name
  ,                                       !- Outside Boundary Condition Object
  ,                                       !- View Factor to Ground
  ,                                       !- Frame and Divider Name
  ,                                       !- Multiplier
  ,                                       !- Number of Vertices
  52.776, 42.94, 17.1,                    !- X,Y,Z Vertex 1 {m}
  52.776, 42.94, 13.6,                    !- X,Y,Z Vertex 2 {m}
  52.776, 36.26, 13.6,                    !- X,Y,Z Vertex 3 {m}
  52.776, 36.26, 17.1;                    !- X,Y,Z Vertex 4 {m}

FenestrationSurface:Detailed,
  Aperture_9b8e41b9,                      !- Name
  Window,                                 !- Surface Type
  WindowConstruction_1dfe9b5d,            !- Construction Name
  Room_1414_dce579f1..Face9,              !- Building Surface Name
  ,                                       !- Outside Boundary Condition Object
  ,                                       !- View Factor to Ground
  ,                                       !- Frame and Divider Name
  ,                                       !- Multiplier
  ,                                       !- Number of Vertices
  52.776, 64.54, 17.1,                    !- X,Y,Z Vertex 1 {m}
  52.776, 64.54, 13.6,                    !- X,Y,Z Vertex 2 {m}
  52.776, 57.86, 13.6,                    !- X,Y,Z Vertex 3 {m}
  52.776, 57.86, 17.1;                    !- X,Y,Z Vertex 4 {m}

ZoneControl:Thermostat,
  Room_1414_dce579f1 Thermostat,          !- Name
  Room_1414_dce579f1,                     !- Zone or ZoneList Name
  Room_1414_dce579f1 Thermostat Schedule, !- Control Type Schedule Name
  ThermostatSetpoint:DualSetpoint,        !- Control 1 Object Type
  Setpoint_2eba0a66 5,                    !- Control 1 Name
  ,                                       !- Control 2 Object Type
  ,                                       !- Control 2 Name
  ,                                       !- Control 3 Object Type
  ,                                       !- Control 3 Name
  ,                                       !- Control 4 Object Type
  ,                                       !- Control 4 Name
  0;                                      !- Temperature Difference Between Cutout And Setpoint {deltaC}

Schedule:Compact,
  Room_1414_dce579f1 Thermostat Schedule, !- Name
  Room_1414_dce579f1 Thermostat Schedule Type Limits, !- Schedule Type Limits Name
  Through: 12/31,                         !- Field 1
  For: AllDays,                           !- Field 2
  Until: 24:00,                           !- Field 3
  4;                                      !- Field 4

ScheduleTypeLimits,
  Room_1414_dce579f1 Thermostat Schedule Type Limits, !- Name
  0,                                      !- Lower Limit Value {BasedOnField A3}
  4,                                      !- Upper Limit Value {BasedOnField A3}
  DISCRETE;                               !- Numeric Type

ThermostatSetpoint:DualSetpoint,
  Setpoint_2eba0a66 5,                    !- Name
  ConstantSchedule_3ec00e82,              !- Heating Setpoint Temperature Schedule Name
  ConstantSchedule_b6307482;              !- Cooling Setpoint Temperature Schedule Name

ZoneVentilation:WindandStackOpenArea,
  Aperture_32326a42_Opening,              !- Name
  Room_1414_dce579f1,                     !- Zone or Space Name
  11.69,                                  !- Opening Area {m2}
  Always On Discrete,                     !- Opening Area Fraction Schedule Name
  Autocalculate,                          !- Opening Effectiveness {dimensionless}
  180,                                    !- Effective Angle {deg}
  0.875,                                  !- Height Difference {m}
  0.45,                                   !- Discharge Coefficient for Opening
  -100,                                   !- Minimum Indoor Temperature {C}
  ,                                       !- Minimum Indoor Temperature Schedule Name
  100,                                    !- Maximum Indoor Temperature {C}
  ,                                       !- Maximum Indoor Temperature Schedule Name
  -100,                                   !- Delta Temperature {deltaC}
  ,                                       !- Delta Temperature Schedule Name
  22,                                     !- Minimum Outdoor Temperature {C}
  ,                                       !- Minimum Outdoor Temperature Schedule Name
  26,                                     !- Maximum Outdoor Temperature {C}
  ,                                       !- Maximum Outdoor Temperature Schedule Name
  40;                                     !- Maximum Wind Speed {m/s}

ZoneVentilation:WindandStackOpenArea,
  Aperture_151b86a1_Opening,              !- Name
  Room_1414_dce579f1,                     !- Zone or Space Name
  11.69,                                  !- Opening Area {m2}
  Always On Discrete,                     !- Opening Area Fraction Schedule Name
  Autocalculate,                          !- Opening Effectiveness {dimensionless}
  180,                                    !- Effective Angle {deg}
  0.875,                                  !- Height Difference {m}
  0.45,                                   !- Discharge Coefficient for Opening
  -100,                                   !- Minimum Indoor Temperature {C}
  ,                                       !- Minimum Indoor Temperature Schedule Name
  100,                                    !- Maximum Indoor Temperature {C}
  ,                                       !- Maximum Indoor Temperature Schedule Name
  -100,                                   !- Delta Temperature {deltaC}
  ,                                       !- Delta Temperature Schedule Name
  22,                                     !- Minimum Outdoor Temperature {C}
  ,                                       !- Minimum Outdoor Temperature Schedule Name
  26,                                     !- Maximum Outdoor Temperature {C}
  ,                                       !- Maximum Outdoor Temperature Schedule Name
  40;                                     !- Maximum Wind Speed {m/s}

ZoneVentilation:WindandStackOpenArea,
  Aperture_13438af8_Opening,              !- Name
  Room_1414_dce579f1,                     !- Zone or Space Name
  11.69,                                  !- Opening Area {m2}
  Always On Discrete,                     !- Opening Area Fraction Schedule Name
  Autocalculate,                          !- Opening Effectiveness {dimensionless}
  180,                                    !- Effective Angle {deg}
  0.875,                                  !- Height Difference {m}
  0.45,                                   !- Discharge Coefficient for Opening
  -100,                                   !- Minimum Indoor Temperature {C}
  ,                                       !- Minimum Indoor Temperature Schedule Name
  100,                                    !- Maximum Indoor Temperature {C}
  ,                                       !- Maximum Indoor Temperature Schedule Name
  -100,                                   !- Delta Temperature {deltaC}
  ,                                       !- Delta Temperature Schedule Name
  22,                                     !- Minimum Outdoor Temperature {C}
  ,                                       !- Minimum Outdoor Temperature Schedule Name
  26,                                     !- Maximum Outdoor Temperature {C}
  ,                                       !- Maximum Outdoor Temperature Schedule Name
  40;                                     !- Maximum Wind Speed {m/s}

ZoneVentilation:WindandStackOpenArea,
  Aperture_f39f4b16_Opening,              !- Name
  Room_1414_dce579f1,                     !- Zone or Space Name
  11.69,                                  !- Opening Area {m2}
  Always On Discrete,                     !- Opening Area Fraction Schedule Name
  Autocalculate,                          !- Opening Effectiveness {dimensionless}
  180,                                    !- Effective Angle {deg}
  0.875,                                  !- Height Difference {m}
  0.45,                                   !- Discharge Coefficient for Opening
  -100,                                   !- Minimum Indoor Temperature {C}
  ,                                       !- Minimum Indoor Temperature Schedule Name
  100,                                    !- Maximum Indoor Temperature {C}
  ,                                       !- Maximum Indoor Temperature Schedule Name
  -100,                                   !- Delta Temperature {deltaC}
  ,                                       !- Delta Temperature Schedule Name
  22,                                     !- Minimum Outdoor Temperature {C}
  ,                                       !- Minimum Outdoor Temperature Schedule Name
  26,                                     !- Maximum Outdoor Temperature {C}
  ,                                       !- Maximum Outdoor Temperature Schedule Name
  40;                                     !- Maximum Wind Speed {m/s}

ZoneVentilation:WindandStackOpenArea,
  Aperture_ec8ff83f_Opening,              !- Name
  Room_1414_dce579f1,                     !- Zone or Space Name
  11.69,                                  !- Opening Area {m2}
  Always On Discrete,                     !- Opening Area Fraction Schedule Name
  Autocalculate,                          !- Opening Effectiveness {dimensionless}
  180,                                    !- Effective Angle {deg}
  0.875,                                  !- Height Difference {m}
  0.45,                                   !- Discharge Coefficient for Opening
  -100,                                   !- Minimum Indoor Temperature {C}
  ,                                       !- Minimum Indoor Temperature Schedule Name
  100,                                    !- Maximum Indoor Temperature {C}
  ,                                       !- Maximum Indoor Temperature Schedule Name
  -100,                                   !- Delta Temperature {deltaC}
  ,                                       !- Delta Temperature Schedule Name
  22,                                     !- Minimum Outdoor Temperature {C}
  ,                                       !- Minimum Outdoor Temperature Schedule Name
  26,                                     !- Maximum Outdoor Temperature {C}
  ,                                       !- Maximum Outdoor Temperature Schedule Name
  40;                                     !- Maximum Wind Speed {m/s}

ZoneVentilation:WindandStackOpenArea,
  Aperture_0974dead_Opening,              !- Name
  Room_1414_dce579f1,                     !- Zone or Space Name
  11.69,                                  !- Opening Area {m2}
  Always On Discrete,                     !- Opening Area Fraction Schedule Name
  Autocalculate,                          !- Opening Effectiveness {dimensionless}
  180,                                    !- Effective Angle {deg}
  0.875,                                  !- Height Difference {m}
  0.45,                                   !- Discharge Coefficient for Opening
  -100,                                   !- Minimum Indoor Temperature {C}
  ,                                       !- Minimum Indoor Temperature Schedule Name
  100,                                    !- Maximum Indoor Temperature {C}
  ,                                       !- Maximum Indoor Temperature Schedule Name
  -100,                                   !- Delta Temperature {deltaC}
  ,                                       !- Delta Temperature Schedule Name
  22,                                     !- Minimum Outdoor Temperature {C}
  ,                                       !- Minimum Outdoor Temperature Schedule Name
  26,                                     !- Maximum Outdoor Temperature {C}
  ,                                       !- Maximum Outdoor Temperature Schedule Name
  40;                                     !- Maximum Wind Speed {m/s}

ZoneVentilation:WindandStackOpenArea,
  Aperture_3d98c72e_Opening,              !- Name
  Room_1414_dce579f1,                     !- Zone or Space Name
  11.69,                                  !- Opening Area {m2}
  Always On Discrete,                     !- Opening Area Fraction Schedule Name
  Autocalculate,                          !- Opening Effectiveness {dimensionless}
  180,                                    !- Effective Angle {deg}
  0.875,                                  !- Height Difference {m}
  0.45,                                   !- Discharge Coefficient for Opening
  -100,                                   !- Minimum Indoor Temperature {C}
  ,                                       !- Minimum Indoor Temperature Schedule Name
  100,                                    !- Maximum Indoor Temperature {C}
  ,                                       !- Maximum Indoor Temperature Schedule Name
  -100,                                   !- Delta Temperature {deltaC}
  ,                                       !- Delta Temperature Schedule Name
  22,                                     !- Minimum Outdoor Temperature {C}
  ,                                       !- Minimum Outdoor Temperature Schedule Name
  26,                                     !- Maximum Outdoor Temperature {C}
  ,                                       !- Maximum Outdoor Temperature Schedule Name
  40;                                     !- Maximum Wind Speed {m/s}

ZoneVentilation:WindandStackOpenArea,
  Aperture_229ffdac_Opening,              !- Name
  Room_1414_dce579f1,                     !- Zone or Space Name
  11.69,                                  !- Opening Area {m2}
  Always On Discrete,                     !- Opening Area Fraction Schedule Name
  Autocalculate,                          !- Opening Effectiveness {dimensionless}
  180,                                    !- Effective Angle {deg}
  0.875,                                  !- Height Difference {m}
  0.45,                                   !- Discharge Coefficient for Opening
  -100,                                   !- Minimum Indoor Temperature {C}
  ,                                       !- Minimum Indoor Temperature Schedule Name
  100,                                    !- Maximum Indoor Temperature {C}
  ,                                       !- Maximum Indoor Temperature Schedule Name
  -100,                                   !- Delta Temperature {deltaC}
  ,                                       !- Delta Temperature Schedule Name
  22,                                     !- Minimum Outdoor Temperature {C}
  ,                                       !- Minimum Outdoor Temperature Schedule Name
  26,                                     !- Maximum Outdoor Temperature {C}
  ,                                       !- Maximum Outdoor Temperature Schedule Name
  40;                                     !- Maximum Wind Speed {m/s}

ZoneVentilation:WindandStackOpenArea,
  Aperture_de056246_Opening,              !- Name
  Room_1414_dce579f1,                     !- Zone or Space Name
  11.69,                                  !- Opening Area {m2}
  Always On Discrete,                     !- Opening Area Fraction Schedule Name
  Autocalculate,                          !- Opening Effectiveness {dimensionless}
  180,                                    !- Effective Angle {deg}
  0.875,                                  !- Height Difference {m}
  0.45,                                   !- Discharge Coefficient for Opening
  -100,                                   !- Minimum Indoor Temperature {C}
  ,                                       !- Minimum Indoor Temperature Schedule Name
  100,                                    !- Maximum Indoor Temperature {C}
  ,                                       !- Maximum Indoor Temperature Schedule Name
  -100,                                   !- Delta Temperature {deltaC}
  ,                                       !- Delta Temperature Schedule Name
  22,                                     !- Minimum Outdoor Temperature {C}
  ,                                       !- Minimum Outdoor Temperature Schedule Name
  26,                                     !- Maximum Outdoor Temperature {C}
  ,                                       !- Maximum Outdoor Temperature Schedule Name
  40;                                     !- Maximum Wind Speed {m/s}

ZoneVentilation:WindandStackOpenArea,
  Aperture_a48ee26c_Opening,              !- Name
  Room_1414_dce579f1,                     !- Zone or Space Name
  11.69,                                  !- Opening Area {m2}
  Always On Discrete,                     !- Opening Area Fraction Schedule Name
  Autocalculate,                          !- Opening Effectiveness {dimensionless}
  180,                                    !- Effective Angle {deg}
  0.875,                                  !- Height Difference {m}
  0.45,                                   !- Discharge Coefficient for Opening
  -100,                                   !- Minimum Indoor Temperature {C}
  ,                                       !- Minimum Indoor Temperature Schedule Name
  100,                                    !- Maximum Indoor Temperature {C}
  ,                                       !- Maximum Indoor Temperature Schedule Name
  -100,                                   !- Delta Temperature {deltaC}
  ,                                       !- Delta Temperature Schedule Name
  22,                                     !- Minimum Outdoor Temperature {C}
  ,                                       !- Minimum Outdoor Temperature Schedule Name
  26,                                     !- Maximum Outdoor Temperature {C}
  ,                                       !- Maximum Outdoor Temperature Schedule Name
  40;                                     !- Maximum Wind Speed {m/s}

ZoneVentilation:WindandStackOpenArea,
  Aperture_17315994_Opening,              !- Name
  Room_1414_dce579f1,                     !- Zone or Space Name
  11.69,                                  !- Opening Area {m2}
  Always On Discrete,                     !- Opening Area Fraction Schedule Name
  Autocalculate,                          !- Opening Effectiveness {dimensionless}
  180,                                    !- Effective Angle {deg}
  0.875,                                  !- Height Difference {m}
  0.45,                                   !- Discharge Coefficient for Opening
  -100,                                   !- Minimum Indoor Temperature {C}
  ,                                       !- Minimum Indoor Temperature Schedule Name
  100,                                    !- Maximum Indoor Temperature {C}
  ,                                       !- Maximum Indoor Temperature Schedule Name
  -100,                                   !- Delta Temperature {deltaC}
  ,                                       !- Delta Temperature Schedule Name
  22,                                     !- Minimum Outdoor Temperature {C}
  ,                                       !- Minimum Outdoor Temperature Schedule Name
  26,                                     !- Maximum Outdoor Temperature {C}
  ,                                       !- Maximum Outdoor Temperature Schedule Name
  40;                                     !- Maximum Wind Speed {m/s}

ZoneVentilation:WindandStackOpenArea,
  Aperture_d488ef15_Opening,              !- Name
  Room_1414_dce579f1,                     !- Zone or Space Name
  11.69,                                  !- Opening Area {m2}
  Always On Discrete,                     !- Opening Area Fraction Schedule Name
  Autocalculate,                          !- Opening Effectiveness {dimensionless}
  180,                                    !- Effective Angle {deg}
  0.875,                                  !- Height Difference {m}
  0.45,                                   !- Discharge Coefficient for Opening
  -100,                                   !- Minimum Indoor Temperature {C}
  ,                                       !- Minimum Indoor Temperature Schedule Name
  100,                                    !- Maximum Indoor Temperature {C}
  ,                                       !- Maximum Indoor Temperature Schedule Name
  -100,                                   !- Delta Temperature {deltaC}
  ,                                       !- Delta Temperature Schedule Name
  22,                                     !- Minimum Outdoor Temperature {C}
  ,                                       !- Minimum Outdoor Temperature Schedule Name
  26,                                     !- Maximum Outdoor Temperature {C}
  ,                                       !- Maximum Outdoor Temperature Schedule Name
  40;                                     !- Maximum Wind Speed {m/s}

ZoneVentilation:WindandStackOpenArea,
  Aperture_343bf03a_Opening,              !- Name
  Room_1414_dce579f1,                     !- Zone or Space Name
  11.69,                                  !- Opening Area {m2}
  Always On Discrete,                     !- Opening Area Fraction Schedule Name
  Autocalculate,                          !- Opening Effectiveness {dimensionless}
  180,                                    !- Effective Angle {deg}
  0.875,                                  !- Height Difference {m}
  0.45,                                   !- Discharge Coefficient for Opening
  -100,                                   !- Minimum Indoor Temperature {C}
  ,                                       !- Minimum Indoor Temperature Schedule Name
  100,                                    !- Maximum Indoor Temperature {C}
  ,                                       !- Maximum Indoor Temperature Schedule Name
  -100,                                   !- Delta Temperature {deltaC}
  ,                                       !- Delta Temperature Schedule Name
  22,                                     !- Minimum Outdoor Temperature {C}
  ,                                       !- Minimum Outdoor Temperature Schedule Name
  26,                                     !- Maximum Outdoor Temperature {C}
  ,                                       !- Maximum Outdoor Temperature Schedule Name
  40;                                     !- Maximum Wind Speed {m/s}

ZoneVentilation:WindandStackOpenArea,
  Aperture_4631f49b_Opening,              !- Name
  Room_1414_dce579f1,                     !- Zone or Space Name
  11.69,                                  !- Opening Area {m2}
  Always On Discrete,                     !- Opening Area Fraction Schedule Name
  Autocalculate,                          !- Opening Effectiveness {dimensionless}
  270,                                    !- Effective Angle {deg}
  0.875,                                  !- Height Difference {m}
  0.45,                                   !- Discharge Coefficient for Opening
  -100,                                   !- Minimum Indoor Temperature {C}
  ,                                       !- Minimum Indoor Temperature Schedule Name
  100,                                    !- Maximum Indoor Temperature {C}
  ,                                       !- Maximum Indoor Temperature Schedule Name
  -100,                                   !- Delta Temperature {deltaC}
  ,                                       !- Delta Temperature Schedule Name
  22,                                     !- Minimum Outdoor Temperature {C}
  ,                                       !- Minimum Outdoor Temperature Schedule Name
  26,                                     !- Maximum Outdoor Temperature {C}
  ,                                       !- Maximum Outdoor Temperature Schedule Name
  40;                                     !- Maximum Wind Speed {m/s}

ZoneVentilation:WindandStackOpenArea,
  Aperture_94a8652e_Opening,              !- Name
  Room_1414_dce579f1,                     !- Zone or Space Name
  11.69,                                  !- Opening Area {m2}
  Always On Discrete,                     !- Opening Area Fraction Schedule Name
  Autocalculate,                          !- Opening Effectiveness {dimensionless}
  270,                                    !- Effective Angle {deg}
  0.875,                                  !- Height Difference {m}
  0.45,                                   !- Discharge Coefficient for Opening
  -100,                                   !- Minimum Indoor Temperature {C}
  ,                                       !- Minimum Indoor Temperature Schedule Name
  100,                                    !- Maximum Indoor Temperature {C}
  ,                                       !- Maximum Indoor Temperature Schedule Name
  -100,                                   !- Delta Temperature {deltaC}
  ,                                       !- Delta Temperature Schedule Name
  22,                                     !- Minimum Outdoor Temperature {C}
  ,                                       !- Minimum Outdoor Temperature Schedule Name
  26,                                     !- Maximum Outdoor Temperature {C}
  ,                                       !- Maximum Outdoor Temperature Schedule Name
  40;                                     !- Maximum Wind Speed {m/s}

ZoneVentilation:WindandStackOpenArea,
  Aperture_176e475b_Opening,              !- Name
  Room_1414_dce579f1,                     !- Zone or Space Name
  11.69,                                  !- Opening Area {m2}
  Always On Discrete,                     !- Opening Area Fraction Schedule Name
  Autocalculate,                          !- Opening Effectiveness {dimensionless}
  270,                                    !- Effective Angle {deg}
  0.875,                                  !- Height Difference {m}
  0.45,                                   !- Discharge Coefficient for Opening
  -100,                                   !- Minimum Indoor Temperature {C}
  ,                                       !- Minimum Indoor Temperature Schedule Name
  100,                                    !- Maximum Indoor Temperature {C}
  ,                                       !- Maximum Indoor Temperature Schedule Name
  -100,                                   !- Delta Temperature {deltaC}
  ,                                       !- Delta Temperature Schedule Name
  22,                                     !- Minimum Outdoor Temperature {C}
  ,                                       !- Minimum Outdoor Temperature Schedule Name
  26,                                     !- Maximum Outdoor Temperature {C}
  ,                                       !- Maximum Outdoor Temperature Schedule Name
  40;                                     !- Maximum Wind Speed {m/s}

ZoneVentilation:WindandStackOpenArea,
  Aperture_28f55400_Opening,              !- Name
  Room_1414_dce579f1,                     !- Zone or Space Name
  11.69,                                  !- Opening Area {m2}
  Always On Discrete,                     !- Opening Area Fraction Schedule Name
  Autocalculate,                          !- Opening Effectiveness {dimensionless}
  270,                                    !- Effective Angle {deg}
  0.875,                                  !- Height Difference {m}
  0.45,                                   !- Discharge Coefficient for Opening
  -100,                                   !- Minimum Indoor Temperature {C}
  ,                                       !- Minimum Indoor Temperature Schedule Name
  100,                                    !- Maximum Indoor Temperature {C}
  ,                                       !- Maximum Indoor Temperature Schedule Name
  -100,                                   !- Delta Temperature {deltaC}
  ,                                       !- Delta Temperature Schedule Name
  22,                                     !- Minimum Outdoor Temperature {C}
  ,                                       !- Minimum Outdoor Temperature Schedule Name
  26,                                     !- Maximum Outdoor Temperature {C}
  ,                                       !- Maximum Outdoor Temperature Schedule Name
  40;                                     !- Maximum Wind Speed {m/s}

ZoneVentilation:WindandStackOpenArea,
  Aperture_9b8e41b9_Opening,              !- Name
  Room_1414_dce579f1,                     !- Zone or Space Name
  11.69,                                  !- Opening Area {m2}
  Always On Discrete,                     !- Opening Area Fraction Schedule Name
  Autocalculate,                          !- Opening Effectiveness {dimensionless}
  270,                                    !- Effective Angle {deg}
  0.875,                                  !- Height Difference {m}
  0.45,                                   !- Discharge Coefficient for Opening
  -100,                                   !- Minimum Indoor Temperature {C}
  ,                                       !- Minimum Indoor Temperature Schedule Name
  100,                                    !- Maximum Indoor Temperature {C}
  ,                                       !- Maximum Indoor Temperature Schedule Name
  -100,                                   !- Delta Temperature {deltaC}
  ,                                       !- Delta Temperature Schedule Name
  22,                                     !- Minimum Outdoor Temperature {C}
  ,                                       !- Minimum Outdoor Temperature Schedule Name
  26,                                     !- Maximum Outdoor Temperature {C}
  ,                                       !- Maximum Outdoor Temperature Schedule Name
  40;                                     !- Maximum Wind Speed {m/s}

ZoneVentilation:WindandStackOpenArea,
  Aperture_8f4f424b_Opening,              !- Name
  Room_1414_dce579f1,                     !- Zone or Space Name
  11.69,                                  !- Opening Area {m2}
  Always On Discrete,                     !- Opening Area Fraction Schedule Name
  Autocalculate,                          !- Opening Effectiveness {dimensionless}
  270,                                    !- Effective Angle {deg}
  0.875,                                  !- Height Difference {m}
  0.45,                                   !- Discharge Coefficient for Opening
  -100,                                   !- Minimum Indoor Temperature {C}
  ,                                       !- Minimum Indoor Temperature Schedule Name
  100,                                    !- Maximum Indoor Temperature {C}
  ,                                       !- Maximum Indoor Temperature Schedule Name
  -100,                                   !- Delta Temperature {deltaC}
  ,                                       !- Delta Temperature Schedule Name
  22,                                     !- Minimum Outdoor Temperature {C}
  ,                                       !- Minimum Outdoor Temperature Schedule Name
  26,                                     !- Maximum Outdoor Temperature {C}
  ,                                       !- Maximum Outdoor Temperature Schedule Name
  40;                                     !- Maximum Wind Speed {m/s}

ZoneVentilation:WindandStackOpenArea,
  Aperture_bd6b0a40_Opening,              !- Name
  Room_1414_dce579f1,                     !- Zone or Space Name
  11.69,                                  !- Opening Area {m2}
  Always On Discrete,                     !- Opening Area Fraction Schedule Name
  Autocalculate,                          !- Opening Effectiveness {dimensionless}
  90,                                     !- Effective Angle {deg}
  0.875,                                  !- Height Difference {m}
  0.45,                                   !- Discharge Coefficient for Opening
  -100,                                   !- Minimum Indoor Temperature {C}
  ,                                       !- Minimum Indoor Temperature Schedule Name
  100,                                    !- Maximum Indoor Temperature {C}
  ,                                       !- Maximum Indoor Temperature Schedule Name
  -100,                                   !- Delta Temperature {deltaC}
  ,                                       !- Delta Temperature Schedule Name
  22,                                     !- Minimum Outdoor Temperature {C}
  ,                                       !- Minimum Outdoor Temperature Schedule Name
  26,                                     !- Maximum Outdoor Temperature {C}
  ,                                       !- Maximum Outdoor Temperature Schedule Name
  40;                                     !- Maximum Wind Speed {m/s}

ZoneVentilation:WindandStackOpenArea,
  Aperture_8473cf6d_Opening,              !- Name
  Room_1414_dce579f1,                     !- Zone or Space Name
  11.69,                                  !- Opening Area {m2}
  Always On Discrete,                     !- Opening Area Fraction Schedule Name
  Autocalculate,                          !- Opening Effectiveness {dimensionless}
  90,                                     !- Effective Angle {deg}
  0.875,                                  !- Height Difference {m}
  0.45,                                   !- Discharge Coefficient for Opening
  -100,                                   !- Minimum Indoor Temperature {C}
  ,                                       !- Minimum Indoor Temperature Schedule Name
  100,                                    !- Maximum Indoor Temperature {C}
  ,                                       !- Maximum Indoor Temperature Schedule Name
  -100,                                   !- Delta Temperature {deltaC}
  ,                                       !- Delta Temperature Schedule Name
  22,                                     !- Minimum Outdoor Temperature {C}
  ,                                       !- Minimum Outdoor Temperature Schedule Name
  26,                                     !- Maximum Outdoor Temperature {C}
  ,                                       !- Maximum Outdoor Temperature Schedule Name
  40;                                     !- Maximum Wind Speed {m/s}

ZoneVentilation:WindandStackOpenArea,
  Aperture_b52760dc_Opening,              !- Name
  Room_1414_dce579f1,                     !- Zone or Space Name
  11.69,                                  !- Opening Area {m2}
  Always On Discrete,                     !- Opening Area Fraction Schedule Name
  Autocalculate,                          !- Opening Effectiveness {dimensionless}
  90,                                     !- Effective Angle {deg}
  0.875,                                  !- Height Difference {m}
  0.45,                                   !- Discharge Coefficient for Opening
  -100,                                   !- Minimum Indoor Temperature {C}
  ,                                       !- Minimum Indoor Temperature Schedule Name
  100,                                    !- Maximum Indoor Temperature {C}
  ,                                       !- Maximum Indoor Temperature Schedule Name
  -100,                                   !- Delta Temperature {deltaC}
  ,                                       !- Delta Temperature Schedule Name
  22,                                     !- Minimum Outdoor Temperature {C}
  ,                                       !- Minimum Outdoor Temperature Schedule Name
  26,                                     !- Maximum Outdoor Temperature {C}
  ,                                       !- Maximum Outdoor Temperature Schedule Name
  40;                                     !- Maximum Wind Speed {m/s}

ZoneVentilation:WindandStackOpenArea,
  Aperture_62758926_Opening,              !- Name
  Room_1414_dce579f1,                     !- Zone or Space Name
  11.69,                                  !- Opening Area {m2}
  Always On Discrete,                     !- Opening Area Fraction Schedule Name
  Autocalculate,                          !- Opening Effectiveness {dimensionless}
  90,                                     !- Effective Angle {deg}
  0.875,                                  !- Height Difference {m}
  0.45,                                   !- Discharge Coefficient for Opening
  -100,                                   !- Minimum Indoor Temperature {C}
  ,                                       !- Minimum Indoor Temperature Schedule Name
  100,                                    !- Maximum Indoor Temperature {C}
  ,                                       !- Maximum Indoor Temperature Schedule Name
  -100,                                   !- Delta Temperature {deltaC}
  ,                                       !- Delta Temperature Schedule Name
  22,                                     !- Minimum Outdoor Temperature {C}
  ,                                       !- Minimum Outdoor Temperature Schedule Name
  26,                                     !- Maximum Outdoor Temperature {C}
  ,                                       !- Maximum Outdoor Temperature Schedule Name
  40;                                     !- Maximum Wind Speed {m/s}

ZoneVentilation:WindandStackOpenArea,
  Aperture_961b17ee_Opening,              !- Name
  Room_1414_dce579f1,                     !- Zone or Space Name
  11.69,                                  !- Opening Area {m2}
  Always On Discrete,                     !- Opening Area Fraction Schedule Name
  Autocalculate,                          !- Opening Effectiveness {dimensionless}
  0,                                      !- Effective Angle {deg}
  0.875,                                  !- Height Difference {m}
  0.45,                                   !- Discharge Coefficient for Opening
  -100,                                   !- Minimum Indoor Temperature {C}
  ,                                       !- Minimum Indoor Temperature Schedule Name
  100,                                    !- Maximum Indoor Temperature {C}
  ,                                       !- Maximum Indoor Temperature Schedule Name
  -100,                                   !- Delta Temperature {deltaC}
  ,                                       !- Delta Temperature Schedule Name
  22,                                     !- Minimum Outdoor Temperature {C}
  ,                                       !- Minimum Outdoor Temperature Schedule Name
  26,                                     !- Maximum Outdoor Temperature {C}
  ,                                       !- Maximum Outdoor Temperature Schedule Name
  40;                                     !- Maximum Wind Speed {m/s}

ZoneVentilation:WindandStackOpenArea,
  Aperture_abd9f4e4_Opening,              !- Name
  Room_1414_dce579f1,                     !- Zone or Space Name
  11.69,                                  !- Opening Area {m2}
  Always On Discrete,                     !- Opening Area Fraction Schedule Name
  Autocalculate,                          !- Opening Effectiveness {dimensionless}
  0,                                      !- Effective Angle {deg}
  0.875,                                  !- Height Difference {m}
  0.45,                                   !- Discharge Coefficient for Opening
  -100,                                   !- Minimum Indoor Temperature {C}
  ,                                       !- Minimum Indoor Temperature Schedule Name
  100,                                    !- Maximum Indoor Temperature {C}
  ,                                       !- Maximum Indoor Temperature Schedule Name
  -100,                                   !- Delta Temperature {deltaC}
  ,                                       !- Delta Temperature Schedule Name
  22,                                     !- Minimum Outdoor Temperature {C}
  ,                                       !- Minimum Outdoor Temperature Schedule Name
  26,                                     !- Maximum Outdoor Temperature {C}
  ,                                       !- Maximum Outdoor Temperature Schedule Name
  40;                                     !- Maximum Wind Speed {m/s}

ZoneVentilation:WindandStackOpenArea,
  Aperture_76c85cdc_Opening,              !- Name
  Room_1414_dce579f1,                     !- Zone or Space Name
  3.248,                                  !- Opening Area {m2}
  Always On Discrete,                     !- Opening Area Fraction Schedule Name
  Autocalculate,                          !- Opening Effectiveness {dimensionless}
  0,                                      !- Effective Angle {deg}
  0.875,                                  !- Height Difference {m}
  0.45,                                   !- Discharge Coefficient for Opening
  -100,                                   !- Minimum Indoor Temperature {C}
  ,                                       !- Minimum Indoor Temperature Schedule Name
  100,                                    !- Maximum Indoor Temperature {C}
  ,                                       !- Maximum Indoor Temperature Schedule Name
  -100,                                   !- Delta Temperature {deltaC}
  ,                                       !- Delta Temperature Schedule Name
  22,                                     !- Minimum Outdoor Temperature {C}
  ,                                       !- Minimum Outdoor Temperature Schedule Name
  26,                                     !- Maximum Outdoor Temperature {C}
  ,                                       !- Maximum Outdoor Temperature Schedule Name
  40;                                     !- Maximum Wind Speed {m/s}

ZoneVentilation:WindandStackOpenArea,
  Aperture_81b9be19_Opening,              !- Name
  Room_1414_dce579f1,                     !- Zone or Space Name
  11.69,                                  !- Opening Area {m2}
  Always On Discrete,                     !- Opening Area Fraction Schedule Name
  Autocalculate,                          !- Opening Effectiveness {dimensionless}
  0,                                      !- Effective Angle {deg}
  0.875,                                  !- Height Difference {m}
  0.45,                                   !- Discharge Coefficient for Opening
  -100,                                   !- Minimum Indoor Temperature {C}
  ,                                       !- Minimum Indoor Temperature Schedule Name
  100,                                    !- Maximum Indoor Temperature {C}
  ,                                       !- Maximum Indoor Temperature Schedule Name
  -100,                                   !- Delta Temperature {deltaC}
  ,                                       !- Delta Temperature Schedule Name
  22,                                     !- Minimum Outdoor Temperature {C}
  ,                                       !- Minimum Outdoor Temperature Schedule Name
  26,                                     !- Maximum Outdoor Temperature {C}
  ,                                       !- Maximum Outdoor Temperature Schedule Name
  40;                                     !- Maximum Wind Speed {m/s}

ZoneVentilation:WindandStackOpenArea,
  Aperture_a8a99d4d_Opening,              !- Name
  Room_1414_dce579f1,                     !- Zone or Space Name
  11.69,                                  !- Opening Area {m2}
  Always On Discrete,                     !- Opening Area Fraction Schedule Name
  Autocalculate,                          !- Opening Effectiveness {dimensionless}
  0,                                      !- Effective Angle {deg}
  0.875,                                  !- Height Difference {m}
  0.45,                                   !- Discharge Coefficient for Opening
  -100,                                   !- Minimum Indoor Temperature {C}
  ,                                       !- Minimum Indoor Temperature Schedule Name
  100,                                    !- Maximum Indoor Temperature {C}
  ,                                       !- Maximum Indoor Temperature Schedule Name
  -100,                                   !- Delta Temperature {deltaC}
  ,                                       !- Delta Temperature Schedule Name
  22,                                     !- Minimum Outdoor Temperature {C}
  ,                                       !- Minimum Outdoor Temperature Schedule Name
  26,                                     !- Maximum Outdoor Temperature {C}
  ,                                       !- Maximum Outdoor Temperature Schedule Name
  40;                                     !- Maximum Wind Speed {m/s}

ZoneVentilation:WindandStackOpenArea,
  Aperture_52703371_Opening,              !- Name
  Room_1414_dce579f1,                     !- Zone or Space Name
  11.69,                                  !- Opening Area {m2}
  Always On Discrete,                     !- Opening Area Fraction Schedule Name
  Autocalculate,                          !- Opening Effectiveness {dimensionless}
  90,                                     !- Effective Angle {deg}
  0.875,                                  !- Height Difference {m}
  0.45,                                   !- Discharge Coefficient for Opening
  -100,                                   !- Minimum Indoor Temperature {C}
  ,                                       !- Minimum Indoor Temperature Schedule Name
  100,                                    !- Maximum Indoor Temperature {C}
  ,                                       !- Maximum Indoor Temperature Schedule Name
  -100,                                   !- Delta Temperature {deltaC}
  ,                                       !- Delta Temperature Schedule Name
  22,                                     !- Minimum Outdoor Temperature {C}
  ,                                       !- Minimum Outdoor Temperature Schedule Name
  26,                                     !- Maximum Outdoor Temperature {C}
  ,                                       !- Maximum Outdoor Temperature Schedule Name
  40;                                     !- Maximum Wind Speed {m/s}

ZoneVentilation:WindandStackOpenArea,
  Aperture_74ca7d90_Opening,              !- Name
  Room_1414_dce579f1,                     !- Zone or Space Name
  11.69,                                  !- Opening Area {m2}
  Always On Discrete,                     !- Opening Area Fraction Schedule Name
  Autocalculate,                          !- Opening Effectiveness {dimensionless}
  90,                                     !- Effective Angle {deg}
  0.875,                                  !- Height Difference {m}
  0.45,                                   !- Discharge Coefficient for Opening
  -100,                                   !- Minimum Indoor Temperature {C}
  ,                                       !- Minimum Indoor Temperature Schedule Name
  100,                                    !- Maximum Indoor Temperature {C}
  ,                                       !- Maximum Indoor Temperature Schedule Name
  -100,                                   !- Delta Temperature {deltaC}
  ,                                       !- Delta Temperature Schedule Name
  22,                                     !- Minimum Outdoor Temperature {C}
  ,                                       !- Minimum Outdoor Temperature Schedule Name
  26,                                     !- Maximum Outdoor Temperature {C}
  ,                                       !- Maximum Outdoor Temperature Schedule Name
  40;                                     !- Maximum Wind Speed {m/s}

ZoneVentilation:WindandStackOpenArea,
  Aperture_43035d16_Opening,              !- Name
  Room_1414_dce579f1,                     !- Zone or Space Name
  11.69,                                  !- Opening Area {m2}
  Always On Discrete,                     !- Opening Area Fraction Schedule Name
  Autocalculate,                          !- Opening Effectiveness {dimensionless}
  90,                                     !- Effective Angle {deg}
  0.875,                                  !- Height Difference {m}
  0.45,                                   !- Discharge Coefficient for Opening
  -100,                                   !- Minimum Indoor Temperature {C}
  ,                                       !- Minimum Indoor Temperature Schedule Name
  100,                                    !- Maximum Indoor Temperature {C}
  ,                                       !- Maximum Indoor Temperature Schedule Name
  -100,                                   !- Delta Temperature {deltaC}
  ,                                       !- Delta Temperature Schedule Name
  22,                                     !- Minimum Outdoor Temperature {C}
  ,                                       !- Minimum Outdoor Temperature Schedule Name
  26,                                     !- Maximum Outdoor Temperature {C}
  ,                                       !- Maximum Outdoor Temperature Schedule Name
  40;                                     !- Maximum Wind Speed {m/s}

ZoneVentilation:WindandStackOpenArea,
  Aperture_4bb51774_Opening,              !- Name
  Room_1414_dce579f1,                     !- Zone or Space Name
  11.69,                                  !- Opening Area {m2}
  Always On Discrete,                     !- Opening Area Fraction Schedule Name
  Autocalculate,                          !- Opening Effectiveness {dimensionless}
  90,                                     !- Effective Angle {deg}
  0.875,                                  !- Height Difference {m}
  0.45,                                   !- Discharge Coefficient for Opening
  -100,                                   !- Minimum Indoor Temperature {C}
  ,                                       !- Minimum Indoor Temperature Schedule Name
  100,                                    !- Maximum Indoor Temperature {C}
  ,                                       !- Maximum Indoor Temperature Schedule Name
  -100,                                   !- Delta Temperature {deltaC}
  ,                                       !- Delta Temperature Schedule Name
  22,                                     !- Minimum Outdoor Temperature {C}
  ,                                       !- Minimum Outdoor Temperature Schedule Name
  26,                                     !- Maximum Outdoor Temperature {C}
  ,                                       !- Maximum Outdoor Temperature Schedule Name
  40;                                     !- Maximum Wind Speed {m/s}

ZoneVentilation:WindandStackOpenArea,
  Aperture_8931b94b_Opening,              !- Name
  Room_1414_dce579f1,                     !- Zone or Space Name
  11.69,                                  !- Opening Area {m2}
  Always On Discrete,                     !- Opening Area Fraction Schedule Name
  Autocalculate,                          !- Opening Effectiveness {dimensionless}
  270,                                    !- Effective Angle {deg}
  0.875,                                  !- Height Difference {m}
  0.45,                                   !- Discharge Coefficient for Opening
  -100,                                   !- Minimum Indoor Temperature {C}
  ,                                       !- Minimum Indoor Temperature Schedule Name
  100,                                    !- Maximum Indoor Temperature {C}
  ,                                       !- Maximum Indoor Temperature Schedule Name
  -100,                                   !- Delta Temperature {deltaC}
  ,                                       !- Delta Temperature Schedule Name
  22,                                     !- Minimum Outdoor Temperature {C}
  ,                                       !- Minimum Outdoor Temperature Schedule Name
  26,                                     !- Maximum Outdoor Temperature {C}
  ,                                       !- Maximum Outdoor Temperature Schedule Name
  40;                                     !- Maximum Wind Speed {m/s}

ZoneVentilation:WindandStackOpenArea,
  Aperture_a7ebffdb_Opening,              !- Name
  Room_1414_dce579f1,                     !- Zone or Space Name
  11.69,                                  !- Opening Area {m2}
  Always On Discrete,                     !- Opening Area Fraction Schedule Name
  Autocalculate,                          !- Opening Effectiveness {dimensionless}
  270,                                    !- Effective Angle {deg}
  0.875,                                  !- Height Difference {m}
  0.45,                                   !- Discharge Coefficient for Opening
  -100,                                   !- Minimum Indoor Temperature {C}
  ,                                       !- Minimum Indoor Temperature Schedule Name
  100,                                    !- Maximum Indoor Temperature {C}
  ,                                       !- Maximum Indoor Temperature Schedule Name
  -100,                                   !- Delta Temperature {deltaC}
  ,                                       !- Delta Temperature Schedule Name
  22,                                     !- Minimum Outdoor Temperature {C}
  ,                                       !- Minimum Outdoor Temperature Schedule Name
  26,                                     !- Maximum Outdoor Temperature {C}
  ,                                       !- Maximum Outdoor Temperature Schedule Name
  40;                                     !- Maximum Wind Speed {m/s}

ZoneVentilation:WindandStackOpenArea,
  Aperture_2a0247c8_Opening,              !- Name
  Room_1414_dce579f1,                     !- Zone or Space Name
  11.69,                                  !- Opening Area {m2}
  Always On Discrete,                     !- Opening Area Fraction Schedule Name
  Autocalculate,                          !- Opening Effectiveness {dimensionless}
  270,                                    !- Effective Angle {deg}
  0.875,                                  !- Height Difference {m}
  0.45,                                   !- Discharge Coefficient for Opening
  -100,                                   !- Minimum Indoor Temperature {C}
  ,                                       !- Minimum Indoor Temperature Schedule Name
  100,                                    !- Maximum Indoor Temperature {C}
  ,                                       !- Maximum Indoor Temperature Schedule Name
  -100,                                   !- Delta Temperature {deltaC}
  ,                                       !- Delta Temperature Schedule Name
  22,                                     !- Minimum Outdoor Temperature {C}
  ,                                       !- Minimum Outdoor Temperature Schedule Name
  26,                                     !- Maximum Outdoor Temperature {C}
  ,                                       !- Maximum Outdoor Temperature Schedule Name
  40;                                     !- Maximum Wind Speed {m/s}

ZoneVentilation:WindandStackOpenArea,
  Aperture_77eaba3e_Opening,              !- Name
  Room_1414_dce579f1,                     !- Zone or Space Name
  11.69,                                  !- Opening Area {m2}
  Always On Discrete,                     !- Opening Area Fraction Schedule Name
  Autocalculate,                          !- Opening Effectiveness {dimensionless}
  270,                                    !- Effective Angle {deg}
  0.875,                                  !- Height Difference {m}
  0.45,                                   !- Discharge Coefficient for Opening
  -100,                                   !- Minimum Indoor Temperature {C}
  ,                                       !- Minimum Indoor Temperature Schedule Name
  100,                                    !- Maximum Indoor Temperature {C}
  ,                                       !- Maximum Indoor Temperature Schedule Name
  -100,                                   !- Delta Temperature {deltaC}
  ,                                       !- Delta Temperature Schedule Name
  22,                                     !- Minimum Outdoor Temperature {C}
  ,                                       !- Minimum Outdoor Temperature Schedule Name
  26,                                     !- Maximum Outdoor Temperature {C}
  ,                                       !- Maximum Outdoor Temperature Schedule Name
  40;                                     !- Maximum Wind Speed {m/s}

ZoneVentilation:WindandStackOpenArea,
  Aperture_e7840a21_Opening,              !- Name
  Room_1414_dce579f1,                     !- Zone or Space Name
  7.53200000000001,                       !- Opening Area {m2}
  Always On Discrete,                     !- Opening Area Fraction Schedule Name
  Autocalculate,                          !- Opening Effectiveness {dimensionless}
  0,                                      !- Effective Angle {deg}
  0.875,                                  !- Height Difference {m}
  0.45,                                   !- Discharge Coefficient for Opening
  -100,                                   !- Minimum Indoor Temperature {C}
  ,                                       !- Minimum Indoor Temperature Schedule Name
  100,                                    !- Maximum Indoor Temperature {C}
  ,                                       !- Maximum Indoor Temperature Schedule Name
  -100,                                   !- Delta Temperature {deltaC}
  ,                                       !- Delta Temperature Schedule Name
  22,                                     !- Minimum Outdoor Temperature {C}
  ,                                       !- Minimum Outdoor Temperature Schedule Name
  26,                                     !- Maximum Outdoor Temperature {C}
  ,                                       !- Maximum Outdoor Temperature Schedule Name
  40;                                     !- Maximum Wind Speed {m/s}

ZoneVentilation:WindandStackOpenArea,
  Aperture_ba2b676c_Opening,              !- Name
  Room_1414_dce579f1,                     !- Zone or Space Name
  11.69,                                  !- Opening Area {m2}
  Always On Discrete,                     !- Opening Area Fraction Schedule Name
  Autocalculate,                          !- Opening Effectiveness {dimensionless}
  0,                                      !- Effective Angle {deg}
  0.875,                                  !- Height Difference {m}
  0.45,                                   !- Discharge Coefficient for Opening
  -100,                                   !- Minimum Indoor Temperature {C}
  ,                                       !- Minimum Indoor Temperature Schedule Name
  100,                                    !- Maximum Indoor Temperature {C}
  ,                                       !- Maximum Indoor Temperature Schedule Name
  -100,                                   !- Delta Temperature {deltaC}
  ,                                       !- Delta Temperature Schedule Name
  22,                                     !- Minimum Outdoor Temperature {C}
  ,                                       !- Minimum Outdoor Temperature Schedule Name
  26,                                     !- Maximum Outdoor Temperature {C}
  ,                                       !- Maximum Outdoor Temperature Schedule Name
  40;                                     !- Maximum Wind Speed {m/s}

ZoneVentilation:WindandStackOpenArea,
  Aperture_dde782bc_Opening,              !- Name
  Room_1414_dce579f1,                     !- Zone or Space Name
  11.69,                                  !- Opening Area {m2}
  Always On Discrete,                     !- Opening Area Fraction Schedule Name
  Autocalculate,                          !- Opening Effectiveness {dimensionless}
  0,                                      !- Effective Angle {deg}
  0.875,                                  !- Height Difference {m}
  0.45,                                   !- Discharge Coefficient for Opening
  -100,                                   !- Minimum Indoor Temperature {C}
  ,                                       !- Minimum Indoor Temperature Schedule Name
  100,                                    !- Maximum Indoor Temperature {C}
  ,                                       !- Maximum Indoor Temperature Schedule Name
  -100,                                   !- Delta Temperature {deltaC}
  ,                                       !- Delta Temperature Schedule Name
  22,                                     !- Minimum Outdoor Temperature {C}
  ,                                       !- Minimum Outdoor Temperature Schedule Name
  26,                                     !- Maximum Outdoor Temperature {C}
  ,                                       !- Maximum Outdoor Temperature Schedule Name
  40;                                     !- Maximum Wind Speed {m/s}

ZoneHVAC:EquipmentConnections,
  Room_1414_dce579f1,                     !- Zone Name
  Room_1414_dce579f1 Equipment List,      !- Zone Conditioning Equipment List Name
  Room_1414_dce579f1 Inlet Node List,     !- Zone Air Inlet Node or NodeList Name
  Room_1414_dce579f1 Exhaust Node List,   !- Zone Air Exhaust Node or NodeList Name
  Node 6;                                 !- Zone Air Node Name

NodeList,
  Room_1414_dce579f1 Inlet Node List,     !- Name
  Node 29;                                !- Node Name 1

NodeList,
  Room_1414_dce579f1 Exhaust Node List,   !- Name
  Node 28;                                !- Node Name 1

ZoneHVAC:IdealLoadsAirSystem,
  Room_1414_dce579f1 Ideal Loads Air System, !- Name
  ,                                       !- Availability Schedule Name
  Node 29,                                !- Zone Supply Air Node Name
  Node 28,                                !- Zone Exhaust Air Node Name
  ,                                       !- System Inlet Air Node Name
  50,                                     !- Maximum Heating Supply Air Temperature {C}
  13,                                     !- Minimum Cooling Supply Air Temperature {C}
  ,                                       !- Maximum Heating Supply Air Humidity Ratio {kgWater/kgDryAir}
  ,                                       !- Minimum Cooling Supply Air Humidity Ratio {kgWater/kgDryAir}
  LimitCapacity,                          !- Heating Limit
  ,                                       !- Maximum Heating Air Flow Rate {m3/s}
  Autosize,                               !- Maximum Sensible Heating Capacity {W}
  LimitFlowRateAndCapacity,               !- Cooling Limit
  Autosize,                               !- Maximum Cooling Air Flow Rate {m3/s}
  Autosize,                               !- Maximum Total Cooling Capacity {W}
  WeeklySchedule_2856ceac,                !- Heating Availability Schedule Name
  WeeklySchedule_2856ceac,                !- Cooling Availability Schedule Name
  None,                                   !- Dehumidification Control Type
  ,                                       !- Cooling Sensible Heat Ratio {dimensionless}
  ,                                       !- Humidification Control Type
  Ventilation_b96face6,                   !- Design Specification Outdoor Air Object Name
  ,                                       !- Outdoor Air Inlet Node Name
  None,                                   !- Demand Controlled Ventilation Type
  DifferentialDryBulb,                    !- Outdoor Air Economizer Type
  ,                                       !- Heat Recovery Type
  0,                                      !- Sensible Heat Recovery Effectiveness {dimensionless}
  0;                                      !- Latent Heat Recovery Effectiveness {dimensionless}

ZoneHVAC:EquipmentList,
  Room_1414_dce579f1 Equipment List,      !- Name
  SequentialLoad,                         !- Load Distribution Scheme
  ZoneHVAC:IdealLoadsAirSystem,           !- Zone Equipment Object Type 1
  Room_1414_dce579f1 Ideal Loads Air System, !- Zone Equipment Name 1
  1,                                      !- Zone Equipment Cooling Sequence 1
  1,                                      !- Zone Equipment Heating or No-Load Sequence 1
  ,                                       !- Zone Equipment Sequential Cooling Fraction Schedule Name 1
  ;                                       !- Zone Equipment Sequential Heating Fraction Schedule Name 1

Sizing:Zone,
  Room_1414_dce579f1,                     !- Zone or ZoneList Name
  SupplyAirTemperature,                   !- Zone Cooling Design Supply Air Temperature Input Method
  14,                                     !- Zone Cooling Design Supply Air Temperature {C}
  11.11,                                  !- Zone Cooling Design Supply Air Temperature Difference {deltaC}
  SupplyAirTemperature,                   !- Zone Heating Design Supply Air Temperature Input Method
  40,                                     !- Zone Heating Design Supply Air Temperature {C}
  11.11,                                  !- Zone Heating Design Supply Air Temperature Difference {deltaC}
  0.0085,                                 !- Zone Cooling Design Supply Air Humidity Ratio {kgWater/kgDryAir}
  0.008,                                  !- Zone Heating Design Supply Air Humidity Ratio {kgWater/kgDryAir}
  Room_1414_dce579f1 DSOA Space List,     !- Design Specification Outdoor Air Object Name
  ,                                       !- Zone Heating Sizing Factor
  ,                                       !- Zone Cooling Sizing Factor
  DesignDay,                              !- Cooling Design Air Flow Method
  0,                                      !- Cooling Design Air Flow Rate {m3/s}
  0.000762,                               !- Cooling Minimum Air Flow per Zone Floor Area {m3/s-m2}
  0,                                      !- Cooling Minimum Air Flow {m3/s}
  0,                                      !- Cooling Minimum Air Flow Fraction
  DesignDay,                              !- Heating Design Air Flow Method
  0,                                      !- Heating Design Air Flow Rate {m3/s}
  0.002032,                               !- Heating Maximum Air Flow per Zone Floor Area {m3/s-m2}
  0.1415762,                              !- Heating Maximum Air Flow {m3/s}
  0.3,                                    !- Heating Maximum Air Flow Fraction
  ,                                       !- Design Specification Zone Air Distribution Object Name
  No,                                     !- Account for Dedicated Outdoor Air System
  ,                                       !- Dedicated Outdoor Air System Control Strategy
  ,                                       !- Dedicated Outdoor Air Low Setpoint Temperature for Design {C}
  ,                                       !- Dedicated Outdoor Air High Setpoint Temperature for Design {C}
  Sensible Load Only No Latent Load,      !- Zone Load Sizing Method
  HumidityRatioDifference,                !- Zone Latent Cooling Design Supply Air Humidity Ratio Input Method
  ,                                       !- Zone Dehumidification Design Supply Air Humidity Ratio {kgWater/kgDryAir}
  0.005,                                  !- Zone Cooling Design Supply Air Humidity Ratio Difference {kgWater/kgDryAir}
  HumidityRatioDifference,                !- Zone Latent Heating Design Supply Air Humidity Ratio Input Method
  ,                                       !- Zone Humidification Design Supply Air Humidity Ratio {kgWater/kgDryAir}
  0.005;                                  !- Zone Humidification Design Supply Air Humidity Ratio Difference {kgWater/kgDryAir}

DesignSpecification:OutdoorAir:SpaceList,
  Room_1414_dce579f1 DSOA Space List,     !- Name
  Room_1414_dce579f1_Space,               !- Space Name 1
  Ventilation_b96face6;                   !- Space Design Specification Outdoor Air Object Name 1

Zone,
  Room_1415_de86df45,                     !- Name
  ,                                       !- Direction of Relative North {deg}
  0,                                      !- X Origin {m}
  0,                                      !- Y Origin {m}
  0,                                      !- Z Origin {m}
  ,                                       !- Type
  1,                                      !- Multiplier
  4.5,                                    !- Ceiling Height {m}
  15867.7056,                             !- Volume {m3}
  ,                                       !- Floor Area {m2}
  ,                                       !- Zone Inside Convection Algorithm
  ,                                       !- Zone Outside Convection Algorithm
  Yes;                                    !- Part of Total Floor Area

Space,
  Room_1415_de86df45_Space,               !- Name
  Room_1415_de86df45,                     !- Zone Name
  ,                                       !- Ceiling Height {m}
  ,                                       !- Volume {m3}
  ,                                       !- Floor Area {m2}
  ProgramType_f9e2e425;                   !- Space Type

BuildingSurface:Detailed,
  Room_1415_de86df45..Face0,              !- Name
  Floor,                                  !- Surface Type
  OpaqueConstruction_47cf3687,            !- Construction Name
  Room_1415_de86df45,                     !- Zone Name
  Room_1415_de86df45_Space,               !- Space Name
  Surface,                                !- Outside Boundary Condition
  Room_1414_dce579f1..Face4,              !- Outside Boundary Condition Object
  NoSun,                                  !- Sun Exposure
  NoWind,                                 !- Wind Exposure
  ,                                       !- View Factor to Ground
  ,                                       !- Number of Vertices
  52.776, 28.8, 18,                       !- X,Y,Z Vertex 1 {m}
  52.776, 1.27675647831894e-15, 18,       !- X,Y,Z Vertex 2 {m}
  14.4, -9.99200722162641e-16, 18,        !- X,Y,Z Vertex 3 {m}
  14.4, 28.8, 18;                         !- X,Y,Z Vertex 4 {m}

BuildingSurface:Detailed,
  Room_1415_de86df45..Face1,              !- Name
  Floor,                                  !- Surface Type
  OpaqueConstruction_47cf3687,            !- Construction Name
  Room_1415_de86df45,                     !- Zone Name
  Room_1415_de86df45_Space,               !- Space Name
  Surface,                                !- Outside Boundary Condition
  Room_1414_dce579f1..Face5,              !- Outside Boundary Condition Object
  NoSun,                                  !- Sun Exposure
  NoWind,                                 !- Wind Exposure
  ,                                       !- View Factor to Ground
  ,                                       !- Number of Vertices
  108, 28.8, 18,                          !- X,Y,Z Vertex 1 {m}
  108, -9.99200722162641e-16, 18,         !- X,Y,Z Vertex 2 {m}
  72, -9.99200722162641e-16, 18,          !- X,Y,Z Vertex 3 {m}
  72, 28.8, 18;                           !- X,Y,Z Vertex 4 {m}

BuildingSurface:Detailed,
  Room_1415_de86df45..Face10,             !- Name
  Wall,                                   !- Surface Type
  OpaqueConstruction_47cf3687,            !- Construction Name
  Room_1415_de86df45,                     !- Zone Name
  Room_1415_de86df45_Space,               !- Space Name
  Outdoors,                               !- Outside Boundary Condition
  ,                                       !- Outside Boundary Condition Object
  SunExposed,                             !- Sun Exposure
  WindExposed,                            !- Wind Exposure
  ,                                       !- View Factor to Ground
  ,                                       !- Number of Vertices
  72, 43.2, 22.5,                         !- X,Y,Z Vertex 1 {m}
  72, 43.2, 18,                           !- X,Y,Z Vertex 2 {m}
  72, 72, 18,                             !- X,Y,Z Vertex 3 {m}
  72, 72, 22.5;                           !- X,Y,Z Vertex 4 {m}

FenestrationSurface:Detailed,
  Aperture_871fcb6b,                      !- Name
  Window,                                 !- Surface Type
  WindowConstruction_1dfe9b5d,            !- Construction Name
  Room_1415_de86df45..Face10,             !- Building Surface Name
  ,                                       !- Outside Boundary Condition Object
  ,                                       !- View Factor to Ground
  ,                                       !- Frame and Divider Name
  ,                                       !- Multiplier
  ,                                       !- Number of Vertices
  72, 43.46, 21.6,                        !- X,Y,Z Vertex 1 {m}
  72, 43.46, 18.1,                        !- X,Y,Z Vertex 2 {m}
  72, 50.14, 18.1,                        !- X,Y,Z Vertex 3 {m}
  72, 50.14, 21.6;                        !- X,Y,Z Vertex 4 {m}

FenestrationSurface:Detailed,
  Aperture_8c6a82ce,                      !- Name
  Window,                                 !- Surface Type
  WindowConstruction_1dfe9b5d,            !- Construction Name
  Room_1415_de86df45..Face10,             !- Building Surface Name
  ,                                       !- Outside Boundary Condition Object
  ,                                       !- View Factor to Ground
  ,                                       !- Frame and Divider Name
  ,                                       !- Multiplier
  ,                                       !- Number of Vertices
  72, 57.86, 21.6,                        !- X,Y,Z Vertex 1 {m}
  72, 57.86, 18.1,                        !- X,Y,Z Vertex 2 {m}
  72, 64.54, 18.1,                        !- X,Y,Z Vertex 3 {m}
  72, 64.54, 21.6;                        !- X,Y,Z Vertex 4 {m}

FenestrationSurface:Detailed,
  Aperture_96058a53,                      !- Name
  Window,                                 !- Surface Type
  WindowConstruction_1dfe9b5d,            !- Construction Name
  Room_1415_de86df45..Face10,             !- Building Surface Name
  ,                                       !- Outside Boundary Condition Object
  ,                                       !- View Factor to Ground
  ,                                       !- Frame and Divider Name
  ,                                       !- Multiplier
  ,                                       !- Number of Vertices
  72, 50.66, 21.6,                        !- X,Y,Z Vertex 1 {m}
  72, 50.66, 18.1,                        !- X,Y,Z Vertex 2 {m}
  72, 57.34, 18.1,                        !- X,Y,Z Vertex 3 {m}
  72, 57.34, 21.6;                        !- X,Y,Z Vertex 4 {m}

FenestrationSurface:Detailed,
  Aperture_c5d0775a,                      !- Name
  Window,                                 !- Surface Type
  WindowConstruction_1dfe9b5d,            !- Construction Name
  Room_1415_de86df45..Face10,             !- Building Surface Name
  ,                                       !- Outside Boundary Condition Object
  ,                                       !- View Factor to Ground
  ,                                       !- Frame and Divider Name
  ,                                       !- Multiplier
  ,                                       !- Number of Vertices
  72, 65.06, 21.6,                        !- X,Y,Z Vertex 1 {m}
  72, 65.06, 18.1,                        !- X,Y,Z Vertex 2 {m}
  72, 71.74, 18.1,                        !- X,Y,Z Vertex 3 {m}
  72, 71.74, 21.6;                        !- X,Y,Z Vertex 4 {m}

BuildingSurface:Detailed,
  Room_1415_de86df45..Face11,             !- Name
  Wall,                                   !- Surface Type
  OpaqueConstruction_47cf3687,            !- Construction Name
  Room_1415_de86df45,                     !- Zone Name
  Room_1415_de86df45_Space,               !- Space Name
  Outdoors,                               !- Outside Boundary Condition
  ,                                       !- Outside Boundary Condition Object
  SunExposed,                             !- Sun Exposure
  WindExposed,                            !- Wind Exposure
  ,                                       !- View Factor to Ground
  ,                                       !- Number of Vertices
  52.776, 28.8, 22.5,                     !- X,Y,Z Vertex 1 {m}
  52.776, 28.8, 18,                       !- X,Y,Z Vertex 2 {m}
  36, 28.8, 18,                           !- X,Y,Z Vertex 3 {m}
  36, 28.8, 22.5;                         !- X,Y,Z Vertex 4 {m}

FenestrationSurface:Detailed,
  Aperture_1eb31950,                      !- Name
  Window,                                 !- Surface Type
  WindowConstruction_1dfe9b5d,            !- Construction Name
  Room_1415_de86df45..Face11,             !- Building Surface Name
  ,                                       !- Outside Boundary Condition Object
  ,                                       !- View Factor to Ground
  ,                                       !- Frame and Divider Name
  ,                                       !- Multiplier
  ,                                       !- Number of Vertices
  50.14, 28.8, 21.6,                      !- X,Y,Z Vertex 1 {m}
  50.14, 28.8, 18.1,                      !- X,Y,Z Vertex 2 {m}
  43.46, 28.8, 18.1,                      !- X,Y,Z Vertex 3 {m}
  43.46, 28.8, 21.6;                      !- X,Y,Z Vertex 4 {m}

FenestrationSurface:Detailed,
  Aperture_7ff66292,                      !- Name
  Window,                                 !- Surface Type
  WindowConstruction_1dfe9b5d,            !- Construction Name
  Room_1415_de86df45..Face11,             !- Building Surface Name
  ,                                       !- Outside Boundary Condition Object
  ,                                       !- View Factor to Ground
  ,                                       !- Frame and Divider Name
  ,                                       !- Multiplier
  ,                                       !- Number of Vertices
  52.516, 28.8, 21.6,                     !- X,Y,Z Vertex 1 {m}
  52.516, 28.8, 18.1,                     !- X,Y,Z Vertex 2 {m}
  50.66, 28.8, 18.1,                      !- X,Y,Z Vertex 3 {m}
  50.66, 28.8, 21.6;                      !- X,Y,Z Vertex 4 {m}

FenestrationSurface:Detailed,
  Aperture_de81bf6c,                      !- Name
  Window,                                 !- Surface Type
  WindowConstruction_1dfe9b5d,            !- Construction Name
  Room_1415_de86df45..Face11,             !- Building Surface Name
  ,                                       !- Outside Boundary Condition Object
  ,                                       !- View Factor to Ground
  ,                                       !- Frame and Divider Name
  ,                                       !- Multiplier
  ,                                       !- Number of Vertices
  42.94, 28.8, 21.6,                      !- X,Y,Z Vertex 1 {m}
  42.94, 28.8, 18.1,                      !- X,Y,Z Vertex 2 {m}
  36.26, 28.8, 18.1,                      !- X,Y,Z Vertex 3 {m}
  36.26, 28.8, 21.6;                      !- X,Y,Z Vertex 4 {m}

BuildingSurface:Detailed,
  Room_1415_de86df45..Face12,             !- Name
  Wall,                                   !- Surface Type
  OpaqueConstruction_47cf3687,            !- Construction Name
  Room_1415_de86df45,                     !- Zone Name
  Room_1415_de86df45_Space,               !- Space Name
  Outdoors,                               !- Outside Boundary Condition
  ,                                       !- Outside Boundary Condition Object
  SunExposed,                             !- Sun Exposure
  WindExposed,                            !- Wind Exposure
  ,                                       !- View Factor to Ground
  ,                                       !- Number of Vertices
  108, 28.8, 22.5,                        !- X,Y,Z Vertex 1 {m}
  108, 28.8, 18,                          !- X,Y,Z Vertex 2 {m}
  93.6, 28.8, 18,                         !- X,Y,Z Vertex 3 {m}
  93.6, 28.8, 22.5;                       !- X,Y,Z Vertex 4 {m}

FenestrationSurface:Detailed,
  Aperture_39c7eb68,                      !- Name
  Window,                                 !- Surface Type
  WindowConstruction_1dfe9b5d,            !- Construction Name
  Room_1415_de86df45..Face12,             !- Building Surface Name
  ,                                       !- Outside Boundary Condition Object
  ,                                       !- View Factor to Ground
  ,                                       !- Frame and Divider Name
  ,                                       !- Multiplier
  ,                                       !- Number of Vertices
  107.74, 28.8, 21.6,                     !- X,Y,Z Vertex 1 {m}
  107.74, 28.8, 18.1,                     !- X,Y,Z Vertex 2 {m}
  101.06, 28.8, 18.1,                     !- X,Y,Z Vertex 3 {m}
  101.06, 28.8, 21.6;                     !- X,Y,Z Vertex 4 {m}

FenestrationSurface:Detailed,
  Aperture_fa1ee5ef,                      !- Name
  Window,                                 !- Surface Type
  WindowConstruction_1dfe9b5d,            !- Construction Name
  Room_1415_de86df45..Face12,             !- Building Surface Name
  ,                                       !- Outside Boundary Condition Object
  ,                                       !- View Factor to Ground
  ,                                       !- Frame and Divider Name
  ,                                       !- Multiplier
  ,                                       !- Number of Vertices
  100.54, 28.8, 21.6,                     !- X,Y,Z Vertex 1 {m}
  100.54, 28.8, 18.1,                     !- X,Y,Z Vertex 2 {m}
  93.86, 28.8, 18.1,                      !- X,Y,Z Vertex 3 {m}
  93.86, 28.8, 21.6;                      !- X,Y,Z Vertex 4 {m}

BuildingSurface:Detailed,
  Room_1415_de86df45..Face13,             !- Name
  Wall,                                   !- Surface Type
  OpaqueConstruction_47cf3687,            !- Construction Name
  Room_1415_de86df45,                     !- Zone Name
  Room_1415_de86df45_Space,               !- Space Name
  Outdoors,                               !- Outside Boundary Condition
  ,                                       !- Outside Boundary Condition Object
  SunExposed,                             !- Sun Exposure
  WindExposed,                            !- Wind Exposure
  ,                                       !- View Factor to Ground
  ,                                       !- Number of Vertices
  14.4, 28.8, 22.5,                       !- X,Y,Z Vertex 1 {m}
  14.4, 28.8, 18,                         !- X,Y,Z Vertex 2 {m}
  14.4, -9.99200722162641e-16, 18,        !- X,Y,Z Vertex 3 {m}
  14.4, -9.99200722162641e-16, 22.5;      !- X,Y,Z Vertex 4 {m}

FenestrationSurface:Detailed,
  Aperture_34cb42de,                      !- Name
  Window,                                 !- Surface Type
  WindowConstruction_1dfe9b5d,            !- Construction Name
  Room_1415_de86df45..Face13,             !- Building Surface Name
  ,                                       !- Outside Boundary Condition Object
  ,                                       !- View Factor to Ground
  ,                                       !- Frame and Divider Name
  ,                                       !- Multiplier
  ,                                       !- Number of Vertices
  14.4, 21.34, 21.6,                      !- X,Y,Z Vertex 1 {m}
  14.4, 21.34, 18.1,                      !- X,Y,Z Vertex 2 {m}
  14.4, 14.66, 18.1,                      !- X,Y,Z Vertex 3 {m}
  14.4, 14.66, 21.6;                      !- X,Y,Z Vertex 4 {m}

FenestrationSurface:Detailed,
  Aperture_af82165c,                      !- Name
  Window,                                 !- Surface Type
  WindowConstruction_1dfe9b5d,            !- Construction Name
  Room_1415_de86df45..Face13,             !- Building Surface Name
  ,                                       !- Outside Boundary Condition Object
  ,                                       !- View Factor to Ground
  ,                                       !- Frame and Divider Name
  ,                                       !- Multiplier
  ,                                       !- Number of Vertices
  14.4, 6.94, 21.6,                       !- X,Y,Z Vertex 1 {m}
  14.4, 6.94, 18.1,                       !- X,Y,Z Vertex 2 {m}
  14.4, 0.259999999999998, 18.1,          !- X,Y,Z Vertex 3 {m}
  14.4, 0.259999999999998, 21.6;          !- X,Y,Z Vertex 4 {m}

FenestrationSurface:Detailed,
  Aperture_cb0ea206,                      !- Name
  Window,                                 !- Surface Type
  WindowConstruction_1dfe9b5d,            !- Construction Name
  Room_1415_de86df45..Face13,             !- Building Surface Name
  ,                                       !- Outside Boundary Condition Object
  ,                                       !- View Factor to Ground
  ,                                       !- Frame and Divider Name
  ,                                       !- Multiplier
  ,                                       !- Number of Vertices
  14.4, 28.54, 21.6,                      !- X,Y,Z Vertex 1 {m}
  14.4, 28.54, 18.1,                      !- X,Y,Z Vertex 2 {m}
  14.4, 21.86, 18.1,                      !- X,Y,Z Vertex 3 {m}
  14.4, 21.86, 21.6;                      !- X,Y,Z Vertex 4 {m}

FenestrationSurface:Detailed,
  Aperture_f64f3c1a,                      !- Name
  Window,                                 !- Surface Type
  WindowConstruction_1dfe9b5d,            !- Construction Name
  Room_1415_de86df45..Face13,             !- Building Surface Name
  ,                                       !- Outside Boundary Condition Object
  ,                                       !- View Factor to Ground
  ,                                       !- Frame and Divider Name
  ,                                       !- Multiplier
  ,                                       !- Number of Vertices
  14.4, 14.14, 21.6,                      !- X,Y,Z Vertex 1 {m}
  14.4, 14.14, 18.1,                      !- X,Y,Z Vertex 2 {m}
  14.4, 7.46, 18.1,                       !- X,Y,Z Vertex 3 {m}
  14.4, 7.46, 21.6;                       !- X,Y,Z Vertex 4 {m}

BuildingSurface:Detailed,
  Room_1415_de86df45..Face14,             !- Name
  Wall,                                   !- Surface Type
  OpaqueConstruction_47cf3687,            !- Construction Name
  Room_1415_de86df45,                     !- Zone Name
  Room_1415_de86df45_Space,               !- Space Name
  Outdoors,                               !- Outside Boundary Condition
  ,                                       !- Outside Boundary Condition Object
  SunExposed,                             !- Sun Exposure
  WindExposed,                            !- Wind Exposure
  ,                                       !- View Factor to Ground
  ,                                       !- Number of Vertices
  108, -9.99200722162641e-16, 22.5,       !- X,Y,Z Vertex 1 {m}
  108, -9.99200722162641e-16, 18,         !- X,Y,Z Vertex 2 {m}
  108, 28.8, 18,                          !- X,Y,Z Vertex 3 {m}
  108, 28.8, 22.5;                        !- X,Y,Z Vertex 4 {m}

FenestrationSurface:Detailed,
  Aperture_3b8dee72,                      !- Name
  Window,                                 !- Surface Type
  WindowConstruction_1dfe9b5d,            !- Construction Name
  Room_1415_de86df45..Face14,             !- Building Surface Name
  ,                                       !- Outside Boundary Condition Object
  ,                                       !- View Factor to Ground
  ,                                       !- Frame and Divider Name
  ,                                       !- Multiplier
  ,                                       !- Number of Vertices
  108, 14.66, 21.6,                       !- X,Y,Z Vertex 1 {m}
  108, 14.66, 18.1,                       !- X,Y,Z Vertex 2 {m}
  108, 21.34, 18.1,                       !- X,Y,Z Vertex 3 {m}
  108, 21.34, 21.6;                       !- X,Y,Z Vertex 4 {m}

FenestrationSurface:Detailed,
  Aperture_6fc27594,                      !- Name
  Window,                                 !- Surface Type
  WindowConstruction_1dfe9b5d,            !- Construction Name
  Room_1415_de86df45..Face14,             !- Building Surface Name
  ,                                       !- Outside Boundary Condition Object
  ,                                       !- View Factor to Ground
  ,                                       !- Frame and Divider Name
  ,                                       !- Multiplier
  ,                                       !- Number of Vertices
  108, 0.259999999999998, 21.6,           !- X,Y,Z Vertex 1 {m}
  108, 0.259999999999998, 18.1,           !- X,Y,Z Vertex 2 {m}
  108, 6.94, 18.1,                        !- X,Y,Z Vertex 3 {m}
  108, 6.94, 21.6;                        !- X,Y,Z Vertex 4 {m}

FenestrationSurface:Detailed,
  Aperture_85b4c0fd,                      !- Name
  Window,                                 !- Surface Type
  WindowConstruction_1dfe9b5d,            !- Construction Name
  Room_1415_de86df45..Face14,             !- Building Surface Name
  ,                                       !- Outside Boundary Condition Object
  ,                                       !- View Factor to Ground
  ,                                       !- Frame and Divider Name
  ,                                       !- Multiplier
  ,                                       !- Number of Vertices
  108, 7.46, 21.6,                        !- X,Y,Z Vertex 1 {m}
  108, 7.46, 18.1,                        !- X,Y,Z Vertex 2 {m}
  108, 14.14, 18.1,                       !- X,Y,Z Vertex 3 {m}
  108, 14.14, 21.6;                       !- X,Y,Z Vertex 4 {m}

FenestrationSurface:Detailed,
  Aperture_ff5ac7ff,                      !- Name
  Window,                                 !- Surface Type
  WindowConstruction_1dfe9b5d,            !- Construction Name
  Room_1415_de86df45..Face14,             !- Building Surface Name
  ,                                       !- Outside Boundary Condition Object
  ,                                       !- View Factor to Ground
  ,                                       !- Frame and Divider Name
  ,                                       !- Multiplier
  ,                                       !- Number of Vertices
  108, 21.86, 21.6,                       !- X,Y,Z Vertex 1 {m}
  108, 21.86, 18.1,                       !- X,Y,Z Vertex 2 {m}
  108, 28.54, 18.1,                       !- X,Y,Z Vertex 3 {m}
  108, 28.54, 21.6;                       !- X,Y,Z Vertex 4 {m}

BuildingSurface:Detailed,
  Room_1415_de86df45..Face15,             !- Name
  Wall,                                   !- Surface Type
  OpaqueConstruction_47cf3687,            !- Construction Name
  Room_1415_de86df45,                     !- Zone Name
  Room_1415_de86df45_Space,               !- Space Name
  Surface,                                !- Outside Boundary Condition
  Room_1424_be2a7315..Face2,              !- Outside Boundary Condition Object
  NoSun,                                  !- Sun Exposure
  NoWind,                                 !- Wind Exposure
  ,                                       !- View Factor to Ground
  ,                                       !- Number of Vertices
  36, 28.8, 22.5,                         !- X,Y,Z Vertex 1 {m}
  36, 28.8, 18,                           !- X,Y,Z Vertex 2 {m}
  14.4, 28.8, 18,                         !- X,Y,Z Vertex 3 {m}
  14.4, 28.8, 22.5;                       !- X,Y,Z Vertex 4 {m}

FenestrationSurface:Detailed,
  Aperture_2a4627d9,                      !- Name
  Window,                                 !- Surface Type
  WindowConstruction_1dfe9b5d,            !- Construction Name
  Room_1415_de86df45..Face15,             !- Building Surface Name
  Ajd_Aperture_2a4627d9,                  !- Outside Boundary Condition Object
  ,                                       !- View Factor to Ground
  ,                                       !- Frame and Divider Name
  ,                                       !- Multiplier
  ,                                       !- Number of Vertices
  21.5, 28.8, 20.3,                       !- X,Y,Z Vertex 1 {m}
  21.5, 28.8, 18.2,                       !- X,Y,Z Vertex 2 {m}
  20.6, 28.8, 18.2,                       !- X,Y,Z Vertex 3 {m}
  20.6, 28.8, 20.3;                       !- X,Y,Z Vertex 4 {m}

FenestrationSurface:Detailed,
  Aperture_7c42ec6c,                      !- Name
  Window,                                 !- Surface Type
  WindowConstruction_1dfe9b5d,            !- Construction Name
  Room_1415_de86df45..Face15,             !- Building Surface Name
  Ajd_Aperture_7c42ec6c,                  !- Outside Boundary Condition Object
  ,                                       !- View Factor to Ground
  ,                                       !- Frame and Divider Name
  ,                                       !- Multiplier
  ,                                       !- Number of Vertices
  22.5, 28.8, 20.3,                       !- X,Y,Z Vertex 1 {m}
  22.5, 28.8, 18.2,                       !- X,Y,Z Vertex 2 {m}
  21.7, 28.8, 18.2,                       !- X,Y,Z Vertex 3 {m}
  21.7, 28.8, 20.3;                       !- X,Y,Z Vertex 4 {m}

FenestrationSurface:Detailed,
  Aperture_80cfbbb1,                      !- Name
  Window,                                 !- Surface Type
  WindowConstruction_1dfe9b5d,            !- Construction Name
  Room_1415_de86df45..Face15,             !- Building Surface Name
  Ajd_Aperture_80cfbbb1,                  !- Outside Boundary Condition Object
  ,                                       !- View Factor to Ground
  ,                                       !- Frame and Divider Name
  ,                                       !- Multiplier
  ,                                       !- Number of Vertices
  35.9, 28.8, 20.3,                       !- X,Y,Z Vertex 1 {m}
  35.9, 28.8, 18.2,                       !- X,Y,Z Vertex 2 {m}
  35, 28.8, 18.2,                         !- X,Y,Z Vertex 3 {m}
  35, 28.8, 20.3;                         !- X,Y,Z Vertex 4 {m}

FenestrationSurface:Detailed,
  Aperture_8c6c945c,                      !- Name
  Window,                                 !- Surface Type
  WindowConstruction_1dfe9b5d,            !- Construction Name
  Room_1415_de86df45..Face15,             !- Building Surface Name
  Ajd_Aperture_8c6c945c,                  !- Outside Boundary Condition Object
  ,                                       !- View Factor to Ground
  ,                                       !- Frame and Divider Name
  ,                                       !- Multiplier
  ,                                       !- Number of Vertices
  29.7, 28.8, 20.3,                       !- X,Y,Z Vertex 1 {m}
  29.7, 28.8, 18.2,                       !- X,Y,Z Vertex 2 {m}
  28.9, 28.8, 18.2,                       !- X,Y,Z Vertex 3 {m}
  28.9, 28.8, 20.3;                       !- X,Y,Z Vertex 4 {m}

FenestrationSurface:Detailed,
  Aperture_ca42bf78,                      !- Name
  Window,                                 !- Surface Type
  WindowConstruction_1dfe9b5d,            !- Construction Name
  Room_1415_de86df45..Face15,             !- Building Surface Name
  Ajd_Aperture_ca42bf78,                  !- Outside Boundary Condition Object
  ,                                       !- View Factor to Ground
  ,                                       !- Frame and Divider Name
  ,                                       !- Multiplier
  ,                                       !- Number of Vertices
  15.3, 28.8, 20.3,                       !- X,Y,Z Vertex 1 {m}
  15.3, 28.8, 18.2,                       !- X,Y,Z Vertex 2 {m}
  14.5, 28.8, 18.2,                       !- X,Y,Z Vertex 3 {m}
  14.5, 28.8, 20.3;                       !- X,Y,Z Vertex 4 {m}

FenestrationSurface:Detailed,
  Aperture_f5d760ce,                      !- Name
  Window,                                 !- Surface Type
  WindowConstruction_1dfe9b5d,            !- Construction Name
  Room_1415_de86df45..Face15,             !- Building Surface Name
  Ajd_Aperture_f5d760ce,                  !- Outside Boundary Condition Object
  ,                                       !- View Factor to Ground
  ,                                       !- Frame and Divider Name
  ,                                       !- Multiplier
  ,                                       !- Number of Vertices
  28.7, 28.8, 20.3,                       !- X,Y,Z Vertex 1 {m}
  28.7, 28.8, 18.2,                       !- X,Y,Z Vertex 2 {m}
  27.8, 28.8, 18.2,                       !- X,Y,Z Vertex 3 {m}
  27.8, 28.8, 20.3;                       !- X,Y,Z Vertex 4 {m}

BuildingSurface:Detailed,
  Room_1415_de86df45..Face16,             !- Name
  Wall,                                   !- Surface Type
  OpaqueConstruction_47cf3687,            !- Construction Name
  Room_1415_de86df45,                     !- Zone Name
  Room_1415_de86df45_Space,               !- Space Name
  Surface,                                !- Outside Boundary Condition
  Room_1425_fad10760..Face3,              !- Outside Boundary Condition Object
  NoSun,                                  !- Sun Exposure
  NoWind,                                 !- Wind Exposure
  ,                                       !- View Factor to Ground
  ,                                       !- Number of Vertices
  93.6, 28.8, 22.5,                       !- X,Y,Z Vertex 1 {m}
  93.6, 28.8, 18,                         !- X,Y,Z Vertex 2 {m}
  72, 28.8, 18,                           !- X,Y,Z Vertex 3 {m}
  72, 28.8, 22.5;                         !- X,Y,Z Vertex 4 {m}

FenestrationSurface:Detailed,
  Ajd_Aperture_1d175904,                  !- Name
  Window,                                 !- Surface Type
  WindowConstruction_1dfe9b5d,            !- Construction Name
  Room_1415_de86df45..Face16,             !- Building Surface Name
  Aperture_1d175904,                      !- Outside Boundary Condition Object
  ,                                       !- View Factor to Ground
  ,                                       !- Frame and Divider Name
  ,                                       !- Multiplier
  ,                                       !- Number of Vertices
  93.5, 28.8, 20.3,                       !- X,Y,Z Vertex 1 {m}
  93.5, 28.8, 18.2,                       !- X,Y,Z Vertex 2 {m}
  92.6, 28.8, 18.2,                       !- X,Y,Z Vertex 3 {m}
  92.6, 28.8, 20.3;                       !- X,Y,Z Vertex 4 {m}

FenestrationSurface:Detailed,
  Ajd_Aperture_3087a912,                  !- Name
  Window,                                 !- Surface Type
  WindowConstruction_1dfe9b5d,            !- Construction Name
  Room_1415_de86df45..Face16,             !- Building Surface Name
  Aperture_3087a912,                      !- Outside Boundary Condition Object
  ,                                       !- View Factor to Ground
  ,                                       !- Frame and Divider Name
  ,                                       !- Multiplier
  ,                                       !- Number of Vertices
  86.3, 28.8, 20.3,                       !- X,Y,Z Vertex 1 {m}
  86.3, 28.8, 18.2,                       !- X,Y,Z Vertex 2 {m}
  85.4, 28.8, 18.2,                       !- X,Y,Z Vertex 3 {m}
  85.4, 28.8, 20.3;                       !- X,Y,Z Vertex 4 {m}

FenestrationSurface:Detailed,
  Ajd_Aperture_68cc608e,                  !- Name
  Window,                                 !- Surface Type
  WindowConstruction_1dfe9b5d,            !- Construction Name
  Room_1415_de86df45..Face16,             !- Building Surface Name
  Aperture_68cc608e,                      !- Outside Boundary Condition Object
  ,                                       !- View Factor to Ground
  ,                                       !- Frame and Divider Name
  ,                                       !- Multiplier
  ,                                       !- Number of Vertices
  79.1, 28.8, 20.3,                       !- X,Y,Z Vertex 1 {m}
  79.1, 28.8, 18.2,                       !- X,Y,Z Vertex 2 {m}
  78.2, 28.8, 18.2,                       !- X,Y,Z Vertex 3 {m}
  78.2, 28.8, 20.3;                       !- X,Y,Z Vertex 4 {m}

FenestrationSurface:Detailed,
  Ajd_Aperture_7b10e6a7,                  !- Name
  Window,                                 !- Surface Type
  WindowConstruction_1dfe9b5d,            !- Construction Name
  Room_1415_de86df45..Face16,             !- Building Surface Name
  Aperture_7b10e6a7,                      !- Outside Boundary Condition Object
  ,                                       !- View Factor to Ground
  ,                                       !- Frame and Divider Name
  ,                                       !- Multiplier
  ,                                       !- Number of Vertices
  87.3, 28.8, 20.3,                       !- X,Y,Z Vertex 1 {m}
  87.3, 28.8, 18.2,                       !- X,Y,Z Vertex 2 {m}
  86.5, 28.8, 18.2,                       !- X,Y,Z Vertex 3 {m}
  86.5, 28.8, 20.3;                       !- X,Y,Z Vertex 4 {m}

FenestrationSurface:Detailed,
  Ajd_Aperture_c7c95618,                  !- Name
  Window,                                 !- Surface Type
  WindowConstruction_1dfe9b5d,            !- Construction Name
  Room_1415_de86df45..Face16,             !- Building Surface Name
  Aperture_c7c95618,                      !- Outside Boundary Condition Object
  ,                                       !- View Factor to Ground
  ,                                       !- Frame and Divider Name
  ,                                       !- Multiplier
  ,                                       !- Number of Vertices
  80.1, 28.8, 20.3,                       !- X,Y,Z Vertex 1 {m}
  80.1, 28.8, 18.2,                       !- X,Y,Z Vertex 2 {m}
  79.3, 28.8, 18.2,                       !- X,Y,Z Vertex 3 {m}
  79.3, 28.8, 20.3;                       !- X,Y,Z Vertex 4 {m}

FenestrationSurface:Detailed,
  Ajd_Aperture_ceefd9f4,                  !- Name
  Window,                                 !- Surface Type
  WindowConstruction_1dfe9b5d,            !- Construction Name
  Room_1415_de86df45..Face16,             !- Building Surface Name
  Aperture_ceefd9f4,                      !- Outside Boundary Condition Object
  ,                                       !- View Factor to Ground
  ,                                       !- Frame and Divider Name
  ,                                       !- Multiplier
  ,                                       !- Number of Vertices
  72.9, 28.8, 20.3,                       !- X,Y,Z Vertex 1 {m}
  72.9, 28.8, 18.2,                       !- X,Y,Z Vertex 2 {m}
  72.1, 28.8, 18.2,                       !- X,Y,Z Vertex 3 {m}
  72.1, 28.8, 20.3;                       !- X,Y,Z Vertex 4 {m}

BuildingSurface:Detailed,
  Room_1415_de86df45..Face17,             !- Name
  Wall,                                   !- Surface Type
  OpaqueConstruction_47cf3687,            !- Construction Name
  Room_1415_de86df45,                     !- Zone Name
  Room_1415_de86df45_Space,               !- Space Name
  Outdoors,                               !- Outside Boundary Condition
  ,                                       !- Outside Boundary Condition Object
  SunExposed,                             !- Sun Exposure
  WindExposed,                            !- Wind Exposure
  ,                                       !- View Factor to Ground
  ,                                       !- Number of Vertices
  72, 72, 22.5,                           !- X,Y,Z Vertex 1 {m}
  72, 72, 18,                             !- X,Y,Z Vertex 2 {m}
  52.776, 72, 18,                         !- X,Y,Z Vertex 3 {m}
  52.776, 72, 22.5;                       !- X,Y,Z Vertex 4 {m}

FenestrationSurface:Detailed,
  Aperture_5f6426a9,                      !- Name
  Window,                                 !- Surface Type
  WindowConstruction_1dfe9b5d,            !- Construction Name
  Room_1415_de86df45..Face17,             !- Building Surface Name
  ,                                       !- Outside Boundary Condition Object
  ,                                       !- View Factor to Ground
  ,                                       !- Frame and Divider Name
  ,                                       !- Multiplier
  ,                                       !- Number of Vertices
  64.54, 72, 21.6,                        !- X,Y,Z Vertex 1 {m}
  64.54, 72, 18.1,                        !- X,Y,Z Vertex 2 {m}
  57.86, 72, 18.1,                        !- X,Y,Z Vertex 3 {m}
  57.86, 72, 21.6;                        !- X,Y,Z Vertex 4 {m}

FenestrationSurface:Detailed,
  Aperture_9f46e1a6,                      !- Name
  Window,                                 !- Surface Type
  WindowConstruction_1dfe9b5d,            !- Construction Name
  Room_1415_de86df45..Face17,             !- Building Surface Name
  ,                                       !- Outside Boundary Condition Object
  ,                                       !- View Factor to Ground
  ,                                       !- Frame and Divider Name
  ,                                       !- Multiplier
  ,                                       !- Number of Vertices
  57.34, 72, 21.6,                        !- X,Y,Z Vertex 1 {m}
  57.34, 72, 18.1,                        !- X,Y,Z Vertex 2 {m}
  53.036, 72, 18.1,                       !- X,Y,Z Vertex 3 {m}
  53.036, 72, 21.6;                       !- X,Y,Z Vertex 4 {m}

FenestrationSurface:Detailed,
  Aperture_abc0eb44,                      !- Name
  Window,                                 !- Surface Type
  WindowConstruction_1dfe9b5d,            !- Construction Name
  Room_1415_de86df45..Face17,             !- Building Surface Name
  ,                                       !- Outside Boundary Condition Object
  ,                                       !- View Factor to Ground
  ,                                       !- Frame and Divider Name
  ,                                       !- Multiplier
  ,                                       !- Number of Vertices
  71.74, 72, 21.6,                        !- X,Y,Z Vertex 1 {m}
  71.74, 72, 18.1,                        !- X,Y,Z Vertex 2 {m}
  65.06, 72, 18.1,                        !- X,Y,Z Vertex 3 {m}
  65.06, 72, 21.6;                        !- X,Y,Z Vertex 4 {m}

BuildingSurface:Detailed,
  Room_1415_de86df45..Face18,             !- Name
  Wall,                                   !- Surface Type
  OpaqueConstruction_47cf3687,            !- Construction Name
  Room_1415_de86df45,                     !- Zone Name
  Room_1415_de86df45_Space,               !- Space Name
  Surface,                                !- Outside Boundary Condition
  Room_1425_fad10760..Face4,              !- Outside Boundary Condition Object
  NoSun,                                  !- Sun Exposure
  NoWind,                                 !- Wind Exposure
  ,                                       !- View Factor to Ground
  ,                                       !- Number of Vertices
  72, 28.8, 22.5,                         !- X,Y,Z Vertex 1 {m}
  72, 28.8, 18,                           !- X,Y,Z Vertex 2 {m}
  72, 43.2, 18,                           !- X,Y,Z Vertex 3 {m}
  72, 43.2, 22.5;                         !- X,Y,Z Vertex 4 {m}

FenestrationSurface:Detailed,
  Aperture_21560001,                      !- Name
  Window,                                 !- Surface Type
  WindowConstruction_1dfe9b5d,            !- Construction Name
  Room_1415_de86df45..Face18,             !- Building Surface Name
  Ajd_Aperture_21560001,                  !- Outside Boundary Condition Object
  ,                                       !- View Factor to Ground
  ,                                       !- Frame and Divider Name
  ,                                       !- Multiplier
  ,                                       !- Number of Vertices
  72, 42.2, 20.3,                         !- X,Y,Z Vertex 1 {m}
  72, 42.2, 18.2,                         !- X,Y,Z Vertex 2 {m}
  72, 43.1, 18.2,                         !- X,Y,Z Vertex 3 {m}
  72, 43.1, 20.3;                         !- X,Y,Z Vertex 4 {m}

FenestrationSurface:Detailed,
  Aperture_aa8b8670,                      !- Name
  Window,                                 !- Surface Type
  WindowConstruction_1dfe9b5d,            !- Construction Name
  Room_1415_de86df45..Face18,             !- Building Surface Name
  Ajd_Aperture_aa8b8670,                  !- Outside Boundary Condition Object
  ,                                       !- View Factor to Ground
  ,                                       !- Frame and Divider Name
  ,                                       !- Multiplier
  ,                                       !- Number of Vertices
  72, 28.9, 20.3,                         !- X,Y,Z Vertex 1 {m}
  72, 28.9, 18.2,                         !- X,Y,Z Vertex 2 {m}
  72, 29.7, 18.2,                         !- X,Y,Z Vertex 3 {m}
  72, 29.7, 20.3;                         !- X,Y,Z Vertex 4 {m}

FenestrationSurface:Detailed,
  Aperture_ea19babf,                      !- Name
  Window,                                 !- Surface Type
  WindowConstruction_1dfe9b5d,            !- Construction Name
  Room_1415_de86df45..Face18,             !- Building Surface Name
  Ajd_Aperture_ea19babf,                  !- Outside Boundary Condition Object
  ,                                       !- View Factor to Ground
  ,                                       !- Frame and Divider Name
  ,                                       !- Multiplier
  ,                                       !- Number of Vertices
  72, 36.1, 20.3,                         !- X,Y,Z Vertex 1 {m}
  72, 36.1, 18.2,                         !- X,Y,Z Vertex 2 {m}
  72, 36.9, 18.2,                         !- X,Y,Z Vertex 3 {m}
  72, 36.9, 20.3;                         !- X,Y,Z Vertex 4 {m}

FenestrationSurface:Detailed,
  Aperture_f5c4d4a6,                      !- Name
  Window,                                 !- Surface Type
  WindowConstruction_1dfe9b5d,            !- Construction Name
  Room_1415_de86df45..Face18,             !- Building Surface Name
  Ajd_Aperture_f5c4d4a6,                  !- Outside Boundary Condition Object
  ,                                       !- View Factor to Ground
  ,                                       !- Frame and Divider Name
  ,                                       !- Multiplier
  ,                                       !- Number of Vertices
  72, 35, 20.3,                           !- X,Y,Z Vertex 1 {m}
  72, 35, 18.2,                           !- X,Y,Z Vertex 2 {m}
  72, 35.9, 18.2,                         !- X,Y,Z Vertex 3 {m}
  72, 35.9, 20.3;                         !- X,Y,Z Vertex 4 {m}

BuildingSurface:Detailed,
  Room_1415_de86df45..Face2,              !- Name
  Floor,                                  !- Surface Type
  OpaqueConstruction_47cf3687,            !- Construction Name
  Room_1415_de86df45,                     !- Zone Name
  Room_1415_de86df45_Space,               !- Space Name
  Surface,                                !- Outside Boundary Condition
  Room_1414_dce579f1..Face6,              !- Outside Boundary Condition Object
  NoSun,                                  !- Sun Exposure
  NoWind,                                 !- Wind Exposure
  ,                                       !- View Factor to Ground
  ,                                       !- Number of Vertices
  72, 72, 18,                             !- X,Y,Z Vertex 1 {m}
  72, 28.8, 18,                           !- X,Y,Z Vertex 2 {m}
  52.776, 28.8, 18,                       !- X,Y,Z Vertex 3 {m}
  52.776, 72, 18;                         !- X,Y,Z Vertex 4 {m}

BuildingSurface:Detailed,
  Room_1415_de86df45..Face3,              !- Name
  Floor,                                  !- Surface Type
  OpaqueConstruction_47cf3687,            !- Construction Name
  Room_1415_de86df45,                     !- Zone Name
  Room_1415_de86df45_Space,               !- Space Name
  Surface,                                !- Outside Boundary Condition
  Room_1414_dce579f1..Face7,              !- Outside Boundary Condition Object
  NoSun,                                  !- Sun Exposure
  NoWind,                                 !- Wind Exposure
  ,                                       !- View Factor to Ground
  ,                                       !- Number of Vertices
  72, 28.8, 18,                           !- X,Y,Z Vertex 1 {m}
  72, -9.99200722162641e-16, 18,          !- X,Y,Z Vertex 2 {m}
  52.776, 1.27675647831894e-15, 18,       !- X,Y,Z Vertex 3 {m}
  52.776, 28.8, 18;                       !- X,Y,Z Vertex 4 {m}

BuildingSurface:Detailed,
  Room_1415_de86df45..Face4,              !- Name
  Roof,                                   !- Surface Type
  OpaqueConstruction_47cf3687,            !- Construction Name
  Room_1415_de86df45,                     !- Zone Name
  Room_1415_de86df45_Space,               !- Space Name
  Outdoors,                               !- Outside Boundary Condition
  ,                                       !- Outside Boundary Condition Object
  SunExposed,                             !- Sun Exposure
  WindExposed,                            !- Wind Exposure
  ,                                       !- View Factor to Ground
  ,                                       !- Number of Vertices
  52.776, 28.8, 22.5,                     !- X,Y,Z Vertex 1 {m}
  52.776, -6.2527760746888e-15, 22.5,     !- X,Y,Z Vertex 2 {m}
  72, 4.77395900588817e-15, 22.5,         !- X,Y,Z Vertex 3 {m}
  72, 28.8, 22.5;                         !- X,Y,Z Vertex 4 {m}

BuildingSurface:Detailed,
  Room_1415_de86df45..Face5,              !- Name
  Roof,                                   !- Surface Type
  OpaqueConstruction_47cf3687,            !- Construction Name
  Room_1415_de86df45,                     !- Zone Name
  Room_1415_de86df45_Space,               !- Space Name
  Outdoors,                               !- Outside Boundary Condition
  ,                                       !- Outside Boundary Condition Object
  SunExposed,                             !- Sun Exposure
  WindExposed,                            !- Wind Exposure
  ,                                       !- View Factor to Ground
  ,                                       !- Number of Vertices
  14.4, 28.8, 22.5,                       !- X,Y,Z Vertex 1 {m}
  14.4, -9.99200722162641e-16, 22.5,      !- X,Y,Z Vertex 2 {m}
  52.776, -6.2527760746888e-15, 22.5,     !- X,Y,Z Vertex 3 {m}
  52.776, 28.8, 22.5;                     !- X,Y,Z Vertex 4 {m}

BuildingSurface:Detailed,
  Room_1415_de86df45..Face6,              !- Name
  Roof,                                   !- Surface Type
  OpaqueConstruction_47cf3687,            !- Construction Name
  Room_1415_de86df45,                     !- Zone Name
  Room_1415_de86df45_Space,               !- Space Name
  Outdoors,                               !- Outside Boundary Condition
  ,                                       !- Outside Boundary Condition Object
  SunExposed,                             !- Sun Exposure
  WindExposed,                            !- Wind Exposure
  ,                                       !- View Factor to Ground
  ,                                       !- Number of Vertices
  72, 28.8, 22.5,                         !- X,Y,Z Vertex 1 {m}
  72, 4.77395900588817e-15, 22.5,         !- X,Y,Z Vertex 2 {m}
  108, -9.99200722162641e-16, 22.5,       !- X,Y,Z Vertex 3 {m}
  108, 28.8, 22.5;                        !- X,Y,Z Vertex 4 {m}

BuildingSurface:Detailed,
  Room_1415_de86df45..Face7,              !- Name
  Roof,                                   !- Surface Type
  OpaqueConstruction_47cf3687,            !- Construction Name
  Room_1415_de86df45,                     !- Zone Name
  Room_1415_de86df45_Space,               !- Space Name
  Outdoors,                               !- Outside Boundary Condition
  ,                                       !- Outside Boundary Condition Object
  SunExposed,                             !- Sun Exposure
  WindExposed,                            !- Wind Exposure
  ,                                       !- View Factor to Ground
  ,                                       !- Number of Vertices
  52.776, 72, 22.5,                       !- X,Y,Z Vertex 1 {m}
  52.776, 28.8, 22.5,                     !- X,Y,Z Vertex 2 {m}
  72, 28.8, 22.5,                         !- X,Y,Z Vertex 3 {m}
  72, 72, 22.5;                           !- X,Y,Z Vertex 4 {m}

BuildingSurface:Detailed,
  Room_1415_de86df45..Face8,              !- Name
  Wall,                                   !- Surface Type
  OpaqueConstruction_47cf3687,            !- Construction Name
  Room_1415_de86df45,                     !- Zone Name
  Room_1415_de86df45_Space,               !- Space Name
  Outdoors,                               !- Outside Boundary Condition
  ,                                       !- Outside Boundary Condition Object
  SunExposed,                             !- Sun Exposure
  WindExposed,                            !- Wind Exposure
  ,                                       !- View Factor to Ground
  ,                                       !- Number of Vertices
  14.4, -9.99200722162641e-16, 22.5,      !- X,Y,Z Vertex 1 {m}
  14.4, -9.99200722162641e-16, 18,        !- X,Y,Z Vertex 2 {m}
  108, -9.99200722162641e-16, 18,         !- X,Y,Z Vertex 3 {m}
  108, -9.99200722162641e-16, 22.5;       !- X,Y,Z Vertex 4 {m}

FenestrationSurface:Detailed,
  Aperture_066725cb,                      !- Name
  Window,                                 !- Surface Type
  WindowConstruction_1dfe9b5d,            !- Construction Name
  Room_1415_de86df45..Face8,              !- Building Surface Name
  ,                                       !- Outside Boundary Condition Object
  ,                                       !- View Factor to Ground
  ,                                       !- Frame and Divider Name
  ,                                       !- Multiplier
  ,                                       !- Number of Vertices
  101.06, -1.66533453693773e-15, 21.6,    !- X,Y,Z Vertex 1 {m}
  101.06, -1.66533453693773e-15, 18.1,    !- X,Y,Z Vertex 2 {m}
  107.74, -1.66533453693773e-15, 18.1,    !- X,Y,Z Vertex 3 {m}
  107.74, -1.66533453693773e-15, 21.6;    !- X,Y,Z Vertex 4 {m}

FenestrationSurface:Detailed,
  Aperture_0b56bb96,                      !- Name
  Window,                                 !- Surface Type
  WindowConstruction_1dfe9b5d,            !- Construction Name
  Room_1415_de86df45..Face8,              !- Building Surface Name
  ,                                       !- Outside Boundary Condition Object
  ,                                       !- View Factor to Ground
  ,                                       !- Frame and Divider Name
  ,                                       !- Multiplier
  ,                                       !- Number of Vertices
  21.86, -1.66533453693773e-15, 21.6,     !- X,Y,Z Vertex 1 {m}
  21.86, -1.66533453693773e-15, 18.1,     !- X,Y,Z Vertex 2 {m}
  28.54, -1.66533453693773e-15, 18.1,     !- X,Y,Z Vertex 3 {m}
  28.54, -1.66533453693773e-15, 21.6;     !- X,Y,Z Vertex 4 {m}

FenestrationSurface:Detailed,
  Aperture_0f5f855b,                      !- Name
  Window,                                 !- Surface Type
  WindowConstruction_1dfe9b5d,            !- Construction Name
  Room_1415_de86df45..Face8,              !- Building Surface Name
  ,                                       !- Outside Boundary Condition Object
  ,                                       !- View Factor to Ground
  ,                                       !- Frame and Divider Name
  ,                                       !- Multiplier
  ,                                       !- Number of Vertices
  29.06, -1.66533453693773e-15, 21.6,     !- X,Y,Z Vertex 1 {m}
  29.06, -1.66533453693773e-15, 18.1,     !- X,Y,Z Vertex 2 {m}
  35.74, -1.66533453693773e-15, 18.1,     !- X,Y,Z Vertex 3 {m}
  35.74, -1.66533453693773e-15, 21.6;     !- X,Y,Z Vertex 4 {m}

FenestrationSurface:Detailed,
  Aperture_1b50291a,                      !- Name
  Window,                                 !- Surface Type
  WindowConstruction_1dfe9b5d,            !- Construction Name
  Room_1415_de86df45..Face8,              !- Building Surface Name
  ,                                       !- Outside Boundary Condition Object
  ,                                       !- View Factor to Ground
  ,                                       !- Frame and Divider Name
  ,                                       !- Multiplier
  ,                                       !- Number of Vertices
  43.46, -1.66533453693773e-15, 21.6,     !- X,Y,Z Vertex 1 {m}
  43.46, -1.66533453693773e-15, 18.1,     !- X,Y,Z Vertex 2 {m}
  50.14, -1.66533453693773e-15, 18.1,     !- X,Y,Z Vertex 3 {m}
  50.14, -1.66533453693773e-15, 21.6;     !- X,Y,Z Vertex 4 {m}

FenestrationSurface:Detailed,
  Aperture_354adde4,                      !- Name
  Window,                                 !- Surface Type
  WindowConstruction_1dfe9b5d,            !- Construction Name
  Room_1415_de86df45..Face8,              !- Building Surface Name
  ,                                       !- Outside Boundary Condition Object
  ,                                       !- View Factor to Ground
  ,                                       !- Frame and Divider Name
  ,                                       !- Multiplier
  ,                                       !- Number of Vertices
  86.66, -1.66533453693773e-15, 21.6,     !- X,Y,Z Vertex 1 {m}
  86.66, -1.66533453693773e-15, 18.1,     !- X,Y,Z Vertex 2 {m}
  93.34, -1.66533453693773e-15, 18.1,     !- X,Y,Z Vertex 3 {m}
  93.34, -1.66533453693773e-15, 21.6;     !- X,Y,Z Vertex 4 {m}

FenestrationSurface:Detailed,
  Aperture_38a631e8,                      !- Name
  Window,                                 !- Surface Type
  WindowConstruction_1dfe9b5d,            !- Construction Name
  Room_1415_de86df45..Face8,              !- Building Surface Name
  ,                                       !- Outside Boundary Condition Object
  ,                                       !- View Factor to Ground
  ,                                       !- Frame and Divider Name
  ,                                       !- Multiplier
  ,                                       !- Number of Vertices
  79.46, -1.66533453693773e-15, 21.6,     !- X,Y,Z Vertex 1 {m}
  79.46, -1.66533453693773e-15, 18.1,     !- X,Y,Z Vertex 2 {m}
  86.14, -1.66533453693773e-15, 18.1,     !- X,Y,Z Vertex 3 {m}
  86.14, -1.66533453693773e-15, 21.6;     !- X,Y,Z Vertex 4 {m}

FenestrationSurface:Detailed,
  Aperture_3f5c72b0,                      !- Name
  Window,                                 !- Surface Type
  WindowConstruction_1dfe9b5d,            !- Construction Name
  Room_1415_de86df45..Face8,              !- Building Surface Name
  ,                                       !- Outside Boundary Condition Object
  ,                                       !- View Factor to Ground
  ,                                       !- Frame and Divider Name
  ,                                       !- Multiplier
  ,                                       !- Number of Vertices
  72.26, -1.66533453693773e-15, 21.6,     !- X,Y,Z Vertex 1 {m}
  72.26, -1.66533453693773e-15, 18.1,     !- X,Y,Z Vertex 2 {m}
  78.94, -1.66533453693773e-15, 18.1,     !- X,Y,Z Vertex 3 {m}
  78.94, -1.66533453693773e-15, 21.6;     !- X,Y,Z Vertex 4 {m}

FenestrationSurface:Detailed,
  Aperture_48d7d10b,                      !- Name
  Window,                                 !- Surface Type
  WindowConstruction_1dfe9b5d,            !- Construction Name
  Room_1415_de86df45..Face8,              !- Building Surface Name
  ,                                       !- Outside Boundary Condition Object
  ,                                       !- View Factor to Ground
  ,                                       !- Frame and Divider Name
  ,                                       !- Multiplier
  ,                                       !- Number of Vertices
  14.66, -1.66533453693773e-15, 21.6,     !- X,Y,Z Vertex 1 {m}
  14.66, -1.66533453693773e-15, 18.1,     !- X,Y,Z Vertex 2 {m}
  21.34, -1.66533453693773e-15, 18.1,     !- X,Y,Z Vertex 3 {m}
  21.34, -1.66533453693773e-15, 21.6;     !- X,Y,Z Vertex 4 {m}

FenestrationSurface:Detailed,
  Aperture_4b6beafe,                      !- Name
  Window,                                 !- Surface Type
  WindowConstruction_1dfe9b5d,            !- Construction Name
  Room_1415_de86df45..Face8,              !- Building Surface Name
  ,                                       !- Outside Boundary Condition Object
  ,                                       !- View Factor to Ground
  ,                                       !- Frame and Divider Name
  ,                                       !- Multiplier
  ,                                       !- Number of Vertices
  50.66, -1.66533453693773e-15, 21.6,     !- X,Y,Z Vertex 1 {m}
  50.66, -1.66533453693773e-15, 18.1,     !- X,Y,Z Vertex 2 {m}
  57.34, -1.66533453693773e-15, 18.1,     !- X,Y,Z Vertex 3 {m}
  57.34, -1.66533453693773e-15, 21.6;     !- X,Y,Z Vertex 4 {m}

FenestrationSurface:Detailed,
  Aperture_81052c8f,                      !- Name
  Window,                                 !- Surface Type
  WindowConstruction_1dfe9b5d,            !- Construction Name
  Room_1415_de86df45..Face8,              !- Building Surface Name
  ,                                       !- Outside Boundary Condition Object
  ,                                       !- View Factor to Ground
  ,                                       !- Frame and Divider Name
  ,                                       !- Multiplier
  ,                                       !- Number of Vertices
  36.26, -1.66533453693773e-15, 21.6,     !- X,Y,Z Vertex 1 {m}
  36.26, -1.66533453693773e-15, 18.1,     !- X,Y,Z Vertex 2 {m}
  42.94, -1.66533453693773e-15, 18.1,     !- X,Y,Z Vertex 3 {m}
  42.94, -1.66533453693773e-15, 21.6;     !- X,Y,Z Vertex 4 {m}

FenestrationSurface:Detailed,
  Aperture_a86b2e88,                      !- Name
  Window,                                 !- Surface Type
  WindowConstruction_1dfe9b5d,            !- Construction Name
  Room_1415_de86df45..Face8,              !- Building Surface Name
  ,                                       !- Outside Boundary Condition Object
  ,                                       !- View Factor to Ground
  ,                                       !- Frame and Divider Name
  ,                                       !- Multiplier
  ,                                       !- Number of Vertices
  57.86, -1.66533453693773e-15, 21.6,     !- X,Y,Z Vertex 1 {m}
  57.86, -1.66533453693773e-15, 18.1,     !- X,Y,Z Vertex 2 {m}
  64.54, -1.66533453693773e-15, 18.1,     !- X,Y,Z Vertex 3 {m}
  64.54, -1.66533453693773e-15, 21.6;     !- X,Y,Z Vertex 4 {m}

FenestrationSurface:Detailed,
  Aperture_ba7cdcb9,                      !- Name
  Window,                                 !- Surface Type
  WindowConstruction_1dfe9b5d,            !- Construction Name
  Room_1415_de86df45..Face8,              !- Building Surface Name
  ,                                       !- Outside Boundary Condition Object
  ,                                       !- View Factor to Ground
  ,                                       !- Frame and Divider Name
  ,                                       !- Multiplier
  ,                                       !- Number of Vertices
  65.06, -1.66533453693773e-15, 21.6,     !- X,Y,Z Vertex 1 {m}
  65.06, -1.66533453693773e-15, 18.1,     !- X,Y,Z Vertex 2 {m}
  71.74, -1.66533453693773e-15, 18.1,     !- X,Y,Z Vertex 3 {m}
  71.74, -1.66533453693773e-15, 21.6;     !- X,Y,Z Vertex 4 {m}

FenestrationSurface:Detailed,
  Aperture_fc9c6c51,                      !- Name
  Window,                                 !- Surface Type
  WindowConstruction_1dfe9b5d,            !- Construction Name
  Room_1415_de86df45..Face8,              !- Building Surface Name
  ,                                       !- Outside Boundary Condition Object
  ,                                       !- View Factor to Ground
  ,                                       !- Frame and Divider Name
  ,                                       !- Multiplier
  ,                                       !- Number of Vertices
  93.86, -1.66533453693773e-15, 21.6,     !- X,Y,Z Vertex 1 {m}
  93.86, -1.66533453693773e-15, 18.1,     !- X,Y,Z Vertex 2 {m}
  100.54, -1.66533453693773e-15, 18.1,    !- X,Y,Z Vertex 3 {m}
  100.54, -1.66533453693773e-15, 21.6;    !- X,Y,Z Vertex 4 {m}

BuildingSurface:Detailed,
  Room_1415_de86df45..Face9,              !- Name
  Wall,                                   !- Surface Type
  OpaqueConstruction_47cf3687,            !- Construction Name
  Room_1415_de86df45,                     !- Zone Name
  Room_1415_de86df45_Space,               !- Space Name
  Outdoors,                               !- Outside Boundary Condition
  ,                                       !- Outside Boundary Condition Object
  SunExposed,                             !- Sun Exposure
  WindExposed,                            !- Wind Exposure
  ,                                       !- View Factor to Ground
  ,                                       !- Number of Vertices
  52.776, 72, 22.5,                       !- X,Y,Z Vertex 1 {m}
  52.776, 72, 18,                         !- X,Y,Z Vertex 2 {m}
  52.776, 28.8, 18,                       !- X,Y,Z Vertex 3 {m}
  52.776, 28.8, 22.5;                     !- X,Y,Z Vertex 4 {m}

FenestrationSurface:Detailed,
  Aperture_270bd028,                      !- Name
  Window,                                 !- Surface Type
  WindowConstruction_1dfe9b5d,            !- Construction Name
  Room_1415_de86df45..Face9,              !- Building Surface Name
  ,                                       !- Outside Boundary Condition Object
  ,                                       !- View Factor to Ground
  ,                                       !- Frame and Divider Name
  ,                                       !- Multiplier
  ,                                       !- Number of Vertices
  52.776, 50.14, 21.6,                    !- X,Y,Z Vertex 1 {m}
  52.776, 50.14, 18.1,                    !- X,Y,Z Vertex 2 {m}
  52.776, 43.46, 18.1,                    !- X,Y,Z Vertex 3 {m}
  52.776, 43.46, 21.6;                    !- X,Y,Z Vertex 4 {m}

FenestrationSurface:Detailed,
  Aperture_43389538,                      !- Name
  Window,                                 !- Surface Type
  WindowConstruction_1dfe9b5d,            !- Construction Name
  Room_1415_de86df45..Face9,              !- Building Surface Name
  ,                                       !- Outside Boundary Condition Object
  ,                                       !- View Factor to Ground
  ,                                       !- Frame and Divider Name
  ,                                       !- Multiplier
  ,                                       !- Number of Vertices
  52.776, 42.94, 21.6,                    !- X,Y,Z Vertex 1 {m}
  52.776, 42.94, 18.1,                    !- X,Y,Z Vertex 2 {m}
  52.776, 36.26, 18.1,                    !- X,Y,Z Vertex 3 {m}
  52.776, 36.26, 21.6;                    !- X,Y,Z Vertex 4 {m}

FenestrationSurface:Detailed,
  Aperture_45474dca,                      !- Name
  Window,                                 !- Surface Type
  WindowConstruction_1dfe9b5d,            !- Construction Name
  Room_1415_de86df45..Face9,              !- Building Surface Name
  ,                                       !- Outside Boundary Condition Object
  ,                                       !- View Factor to Ground
  ,                                       !- Frame and Divider Name
  ,                                       !- Multiplier
  ,                                       !- Number of Vertices
  52.776, 64.54, 21.6,                    !- X,Y,Z Vertex 1 {m}
  52.776, 64.54, 18.1,                    !- X,Y,Z Vertex 2 {m}
  52.776, 57.86, 18.1,                    !- X,Y,Z Vertex 3 {m}
  52.776, 57.86, 21.6;                    !- X,Y,Z Vertex 4 {m}

FenestrationSurface:Detailed,
  Aperture_4d0f1584,                      !- Name
  Window,                                 !- Surface Type
  WindowConstruction_1dfe9b5d,            !- Construction Name
  Room_1415_de86df45..Face9,              !- Building Surface Name
  ,                                       !- Outside Boundary Condition Object
  ,                                       !- View Factor to Ground
  ,                                       !- Frame and Divider Name
  ,                                       !- Multiplier
  ,                                       !- Number of Vertices
  52.776, 35.74, 21.6,                    !- X,Y,Z Vertex 1 {m}
  52.776, 35.74, 18.1,                    !- X,Y,Z Vertex 2 {m}
  52.776, 29.06, 18.1,                    !- X,Y,Z Vertex 3 {m}
  52.776, 29.06, 21.6;                    !- X,Y,Z Vertex 4 {m}

FenestrationSurface:Detailed,
  Aperture_a21df2a2,                      !- Name
  Window,                                 !- Surface Type
  WindowConstruction_1dfe9b5d,            !- Construction Name
  Room_1415_de86df45..Face9,              !- Building Surface Name
  ,                                       !- Outside Boundary Condition Object
  ,                                       !- View Factor to Ground
  ,                                       !- Frame and Divider Name
  ,                                       !- Multiplier
  ,                                       !- Number of Vertices
  52.776, 57.34, 21.6,                    !- X,Y,Z Vertex 1 {m}
  52.776, 57.34, 18.1,                    !- X,Y,Z Vertex 2 {m}
  52.776, 50.66, 18.1,                    !- X,Y,Z Vertex 3 {m}
  52.776, 50.66, 21.6;                    !- X,Y,Z Vertex 4 {m}

FenestrationSurface:Detailed,
  Aperture_ffb30b51,                      !- Name
  Window,                                 !- Surface Type
  WindowConstruction_1dfe9b5d,            !- Construction Name
  Room_1415_de86df45..Face9,              !- Building Surface Name
  ,                                       !- Outside Boundary Condition Object
  ,                                       !- View Factor to Ground
  ,                                       !- Frame and Divider Name
  ,                                       !- Multiplier
  ,                                       !- Number of Vertices
  52.776, 71.74, 21.6,                    !- X,Y,Z Vertex 1 {m}
  52.776, 71.74, 18.1,                    !- X,Y,Z Vertex 2 {m}
  52.776, 65.06, 18.1,                    !- X,Y,Z Vertex 3 {m}
  52.776, 65.06, 21.6;                    !- X,Y,Z Vertex 4 {m}

ZoneControl:Thermostat,
  Room_1415_de86df45 Thermostat,          !- Name
  Room_1415_de86df45,                     !- Zone or ZoneList Name
  Room_1415_de86df45 Thermostat Schedule, !- Control Type Schedule Name
  ThermostatSetpoint:DualSetpoint,        !- Control 1 Object Type
  Setpoint_2eba0a66 6,                    !- Control 1 Name
  ,                                       !- Control 2 Object Type
  ,                                       !- Control 2 Name
  ,                                       !- Control 3 Object Type
  ,                                       !- Control 3 Name
  ,                                       !- Control 4 Object Type
  ,                                       !- Control 4 Name
  0;                                      !- Temperature Difference Between Cutout And Setpoint {deltaC}

Schedule:Compact,
  Room_1415_de86df45 Thermostat Schedule, !- Name
  Room_1415_de86df45 Thermostat Schedule Type Limits, !- Schedule Type Limits Name
  Through: 12/31,                         !- Field 1
  For: AllDays,                           !- Field 2
  Until: 24:00,                           !- Field 3
  4;                                      !- Field 4

ScheduleTypeLimits,
  Room_1415_de86df45 Thermostat Schedule Type Limits, !- Name
  0,                                      !- Lower Limit Value {BasedOnField A3}
  4,                                      !- Upper Limit Value {BasedOnField A3}
  DISCRETE;                               !- Numeric Type

ThermostatSetpoint:DualSetpoint,
  Setpoint_2eba0a66 6,                    !- Name
  ConstantSchedule_3ec00e82,              !- Heating Setpoint Temperature Schedule Name
  ConstantSchedule_b6307482;              !- Cooling Setpoint Temperature Schedule Name

ZoneVentilation:WindandStackOpenArea,
  Aperture_48d7d10b_Opening,              !- Name
  Room_1415_de86df45,                     !- Zone or Space Name
  11.69,                                  !- Opening Area {m2}
  Always On Discrete,                     !- Opening Area Fraction Schedule Name
  Autocalculate,                          !- Opening Effectiveness {dimensionless}
  180,                                    !- Effective Angle {deg}
  0.875,                                  !- Height Difference {m}
  0.45,                                   !- Discharge Coefficient for Opening
  -100,                                   !- Minimum Indoor Temperature {C}
  ,                                       !- Minimum Indoor Temperature Schedule Name
  100,                                    !- Maximum Indoor Temperature {C}
  ,                                       !- Maximum Indoor Temperature Schedule Name
  -100,                                   !- Delta Temperature {deltaC}
  ,                                       !- Delta Temperature Schedule Name
  22,                                     !- Minimum Outdoor Temperature {C}
  ,                                       !- Minimum Outdoor Temperature Schedule Name
  26,                                     !- Maximum Outdoor Temperature {C}
  ,                                       !- Maximum Outdoor Temperature Schedule Name
  40;                                     !- Maximum Wind Speed {m/s}

ZoneVentilation:WindandStackOpenArea,
  Aperture_0b56bb96_Opening,              !- Name
  Room_1415_de86df45,                     !- Zone or Space Name
  11.69,                                  !- Opening Area {m2}
  Always On Discrete,                     !- Opening Area Fraction Schedule Name
  Autocalculate,                          !- Opening Effectiveness {dimensionless}
  180,                                    !- Effective Angle {deg}
  0.875,                                  !- Height Difference {m}
  0.45,                                   !- Discharge Coefficient for Opening
  -100,                                   !- Minimum Indoor Temperature {C}
  ,                                       !- Minimum Indoor Temperature Schedule Name
  100,                                    !- Maximum Indoor Temperature {C}
  ,                                       !- Maximum Indoor Temperature Schedule Name
  -100,                                   !- Delta Temperature {deltaC}
  ,                                       !- Delta Temperature Schedule Name
  22,                                     !- Minimum Outdoor Temperature {C}
  ,                                       !- Minimum Outdoor Temperature Schedule Name
  26,                                     !- Maximum Outdoor Temperature {C}
  ,                                       !- Maximum Outdoor Temperature Schedule Name
  40;                                     !- Maximum Wind Speed {m/s}

ZoneVentilation:WindandStackOpenArea,
  Aperture_0f5f855b_Opening,              !- Name
  Room_1415_de86df45,                     !- Zone or Space Name
  11.69,                                  !- Opening Area {m2}
  Always On Discrete,                     !- Opening Area Fraction Schedule Name
  Autocalculate,                          !- Opening Effectiveness {dimensionless}
  180,                                    !- Effective Angle {deg}
  0.875,                                  !- Height Difference {m}
  0.45,                                   !- Discharge Coefficient for Opening
  -100,                                   !- Minimum Indoor Temperature {C}
  ,                                       !- Minimum Indoor Temperature Schedule Name
  100,                                    !- Maximum Indoor Temperature {C}
  ,                                       !- Maximum Indoor Temperature Schedule Name
  -100,                                   !- Delta Temperature {deltaC}
  ,                                       !- Delta Temperature Schedule Name
  22,                                     !- Minimum Outdoor Temperature {C}
  ,                                       !- Minimum Outdoor Temperature Schedule Name
  26,                                     !- Maximum Outdoor Temperature {C}
  ,                                       !- Maximum Outdoor Temperature Schedule Name
  40;                                     !- Maximum Wind Speed {m/s}

ZoneVentilation:WindandStackOpenArea,
  Aperture_81052c8f_Opening,              !- Name
  Room_1415_de86df45,                     !- Zone or Space Name
  11.69,                                  !- Opening Area {m2}
  Always On Discrete,                     !- Opening Area Fraction Schedule Name
  Autocalculate,                          !- Opening Effectiveness {dimensionless}
  180,                                    !- Effective Angle {deg}
  0.875,                                  !- Height Difference {m}
  0.45,                                   !- Discharge Coefficient for Opening
  -100,                                   !- Minimum Indoor Temperature {C}
  ,                                       !- Minimum Indoor Temperature Schedule Name
  100,                                    !- Maximum Indoor Temperature {C}
  ,                                       !- Maximum Indoor Temperature Schedule Name
  -100,                                   !- Delta Temperature {deltaC}
  ,                                       !- Delta Temperature Schedule Name
  22,                                     !- Minimum Outdoor Temperature {C}
  ,                                       !- Minimum Outdoor Temperature Schedule Name
  26,                                     !- Maximum Outdoor Temperature {C}
  ,                                       !- Maximum Outdoor Temperature Schedule Name
  40;                                     !- Maximum Wind Speed {m/s}

ZoneVentilation:WindandStackOpenArea,
  Aperture_1b50291a_Opening,              !- Name
  Room_1415_de86df45,                     !- Zone or Space Name
  11.69,                                  !- Opening Area {m2}
  Always On Discrete,                     !- Opening Area Fraction Schedule Name
  Autocalculate,                          !- Opening Effectiveness {dimensionless}
  180,                                    !- Effective Angle {deg}
  0.875,                                  !- Height Difference {m}
  0.45,                                   !- Discharge Coefficient for Opening
  -100,                                   !- Minimum Indoor Temperature {C}
  ,                                       !- Minimum Indoor Temperature Schedule Name
  100,                                    !- Maximum Indoor Temperature {C}
  ,                                       !- Maximum Indoor Temperature Schedule Name
  -100,                                   !- Delta Temperature {deltaC}
  ,                                       !- Delta Temperature Schedule Name
  22,                                     !- Minimum Outdoor Temperature {C}
  ,                                       !- Minimum Outdoor Temperature Schedule Name
  26,                                     !- Maximum Outdoor Temperature {C}
  ,                                       !- Maximum Outdoor Temperature Schedule Name
  40;                                     !- Maximum Wind Speed {m/s}

ZoneVentilation:WindandStackOpenArea,
  Aperture_4b6beafe_Opening,              !- Name
  Room_1415_de86df45,                     !- Zone or Space Name
  11.69,                                  !- Opening Area {m2}
  Always On Discrete,                     !- Opening Area Fraction Schedule Name
  Autocalculate,                          !- Opening Effectiveness {dimensionless}
  180,                                    !- Effective Angle {deg}
  0.875,                                  !- Height Difference {m}
  0.45,                                   !- Discharge Coefficient for Opening
  -100,                                   !- Minimum Indoor Temperature {C}
  ,                                       !- Minimum Indoor Temperature Schedule Name
  100,                                    !- Maximum Indoor Temperature {C}
  ,                                       !- Maximum Indoor Temperature Schedule Name
  -100,                                   !- Delta Temperature {deltaC}
  ,                                       !- Delta Temperature Schedule Name
  22,                                     !- Minimum Outdoor Temperature {C}
  ,                                       !- Minimum Outdoor Temperature Schedule Name
  26,                                     !- Maximum Outdoor Temperature {C}
  ,                                       !- Maximum Outdoor Temperature Schedule Name
  40;                                     !- Maximum Wind Speed {m/s}

ZoneVentilation:WindandStackOpenArea,
  Aperture_a86b2e88_Opening,              !- Name
  Room_1415_de86df45,                     !- Zone or Space Name
  11.69,                                  !- Opening Area {m2}
  Always On Discrete,                     !- Opening Area Fraction Schedule Name
  Autocalculate,                          !- Opening Effectiveness {dimensionless}
  180,                                    !- Effective Angle {deg}
  0.875,                                  !- Height Difference {m}
  0.45,                                   !- Discharge Coefficient for Opening
  -100,                                   !- Minimum Indoor Temperature {C}
  ,                                       !- Minimum Indoor Temperature Schedule Name
  100,                                    !- Maximum Indoor Temperature {C}
  ,                                       !- Maximum Indoor Temperature Schedule Name
  -100,                                   !- Delta Temperature {deltaC}
  ,                                       !- Delta Temperature Schedule Name
  22,                                     !- Minimum Outdoor Temperature {C}
  ,                                       !- Minimum Outdoor Temperature Schedule Name
  26,                                     !- Maximum Outdoor Temperature {C}
  ,                                       !- Maximum Outdoor Temperature Schedule Name
  40;                                     !- Maximum Wind Speed {m/s}

ZoneVentilation:WindandStackOpenArea,
  Aperture_ba7cdcb9_Opening,              !- Name
  Room_1415_de86df45,                     !- Zone or Space Name
  11.69,                                  !- Opening Area {m2}
  Always On Discrete,                     !- Opening Area Fraction Schedule Name
  Autocalculate,                          !- Opening Effectiveness {dimensionless}
  180,                                    !- Effective Angle {deg}
  0.875,                                  !- Height Difference {m}
  0.45,                                   !- Discharge Coefficient for Opening
  -100,                                   !- Minimum Indoor Temperature {C}
  ,                                       !- Minimum Indoor Temperature Schedule Name
  100,                                    !- Maximum Indoor Temperature {C}
  ,                                       !- Maximum Indoor Temperature Schedule Name
  -100,                                   !- Delta Temperature {deltaC}
  ,                                       !- Delta Temperature Schedule Name
  22,                                     !- Minimum Outdoor Temperature {C}
  ,                                       !- Minimum Outdoor Temperature Schedule Name
  26,                                     !- Maximum Outdoor Temperature {C}
  ,                                       !- Maximum Outdoor Temperature Schedule Name
  40;                                     !- Maximum Wind Speed {m/s}

ZoneVentilation:WindandStackOpenArea,
  Aperture_3f5c72b0_Opening,              !- Name
  Room_1415_de86df45,                     !- Zone or Space Name
  11.69,                                  !- Opening Area {m2}
  Always On Discrete,                     !- Opening Area Fraction Schedule Name
  Autocalculate,                          !- Opening Effectiveness {dimensionless}
  180,                                    !- Effective Angle {deg}
  0.875,                                  !- Height Difference {m}
  0.45,                                   !- Discharge Coefficient for Opening
  -100,                                   !- Minimum Indoor Temperature {C}
  ,                                       !- Minimum Indoor Temperature Schedule Name
  100,                                    !- Maximum Indoor Temperature {C}
  ,                                       !- Maximum Indoor Temperature Schedule Name
  -100,                                   !- Delta Temperature {deltaC}
  ,                                       !- Delta Temperature Schedule Name
  22,                                     !- Minimum Outdoor Temperature {C}
  ,                                       !- Minimum Outdoor Temperature Schedule Name
  26,                                     !- Maximum Outdoor Temperature {C}
  ,                                       !- Maximum Outdoor Temperature Schedule Name
  40;                                     !- Maximum Wind Speed {m/s}

ZoneVentilation:WindandStackOpenArea,
  Aperture_38a631e8_Opening,              !- Name
  Room_1415_de86df45,                     !- Zone or Space Name
  11.69,                                  !- Opening Area {m2}
  Always On Discrete,                     !- Opening Area Fraction Schedule Name
  Autocalculate,                          !- Opening Effectiveness {dimensionless}
  180,                                    !- Effective Angle {deg}
  0.875,                                  !- Height Difference {m}
  0.45,                                   !- Discharge Coefficient for Opening
  -100,                                   !- Minimum Indoor Temperature {C}
  ,                                       !- Minimum Indoor Temperature Schedule Name
  100,                                    !- Maximum Indoor Temperature {C}
  ,                                       !- Maximum Indoor Temperature Schedule Name
  -100,                                   !- Delta Temperature {deltaC}
  ,                                       !- Delta Temperature Schedule Name
  22,                                     !- Minimum Outdoor Temperature {C}
  ,                                       !- Minimum Outdoor Temperature Schedule Name
  26,                                     !- Maximum Outdoor Temperature {C}
  ,                                       !- Maximum Outdoor Temperature Schedule Name
  40;                                     !- Maximum Wind Speed {m/s}

ZoneVentilation:WindandStackOpenArea,
  Aperture_354adde4_Opening,              !- Name
  Room_1415_de86df45,                     !- Zone or Space Name
  11.69,                                  !- Opening Area {m2}
  Always On Discrete,                     !- Opening Area Fraction Schedule Name
  Autocalculate,                          !- Opening Effectiveness {dimensionless}
  180,                                    !- Effective Angle {deg}
  0.875,                                  !- Height Difference {m}
  0.45,                                   !- Discharge Coefficient for Opening
  -100,                                   !- Minimum Indoor Temperature {C}
  ,                                       !- Minimum Indoor Temperature Schedule Name
  100,                                    !- Maximum Indoor Temperature {C}
  ,                                       !- Maximum Indoor Temperature Schedule Name
  -100,                                   !- Delta Temperature {deltaC}
  ,                                       !- Delta Temperature Schedule Name
  22,                                     !- Minimum Outdoor Temperature {C}
  ,                                       !- Minimum Outdoor Temperature Schedule Name
  26,                                     !- Maximum Outdoor Temperature {C}
  ,                                       !- Maximum Outdoor Temperature Schedule Name
  40;                                     !- Maximum Wind Speed {m/s}

ZoneVentilation:WindandStackOpenArea,
  Aperture_fc9c6c51_Opening,              !- Name
  Room_1415_de86df45,                     !- Zone or Space Name
  11.69,                                  !- Opening Area {m2}
  Always On Discrete,                     !- Opening Area Fraction Schedule Name
  Autocalculate,                          !- Opening Effectiveness {dimensionless}
  180,                                    !- Effective Angle {deg}
  0.875,                                  !- Height Difference {m}
  0.45,                                   !- Discharge Coefficient for Opening
  -100,                                   !- Minimum Indoor Temperature {C}
  ,                                       !- Minimum Indoor Temperature Schedule Name
  100,                                    !- Maximum Indoor Temperature {C}
  ,                                       !- Maximum Indoor Temperature Schedule Name
  -100,                                   !- Delta Temperature {deltaC}
  ,                                       !- Delta Temperature Schedule Name
  22,                                     !- Minimum Outdoor Temperature {C}
  ,                                       !- Minimum Outdoor Temperature Schedule Name
  26,                                     !- Maximum Outdoor Temperature {C}
  ,                                       !- Maximum Outdoor Temperature Schedule Name
  40;                                     !- Maximum Wind Speed {m/s}

ZoneVentilation:WindandStackOpenArea,
  Aperture_066725cb_Opening,              !- Name
  Room_1415_de86df45,                     !- Zone or Space Name
  11.69,                                  !- Opening Area {m2}
  Always On Discrete,                     !- Opening Area Fraction Schedule Name
  Autocalculate,                          !- Opening Effectiveness {dimensionless}
  180,                                    !- Effective Angle {deg}
  0.875,                                  !- Height Difference {m}
  0.45,                                   !- Discharge Coefficient for Opening
  -100,                                   !- Minimum Indoor Temperature {C}
  ,                                       !- Minimum Indoor Temperature Schedule Name
  100,                                    !- Maximum Indoor Temperature {C}
  ,                                       !- Maximum Indoor Temperature Schedule Name
  -100,                                   !- Delta Temperature {deltaC}
  ,                                       !- Delta Temperature Schedule Name
  22,                                     !- Minimum Outdoor Temperature {C}
  ,                                       !- Minimum Outdoor Temperature Schedule Name
  26,                                     !- Maximum Outdoor Temperature {C}
  ,                                       !- Maximum Outdoor Temperature Schedule Name
  40;                                     !- Maximum Wind Speed {m/s}

ZoneVentilation:WindandStackOpenArea,
  Aperture_4d0f1584_Opening,              !- Name
  Room_1415_de86df45,                     !- Zone or Space Name
  11.69,                                  !- Opening Area {m2}
  Always On Discrete,                     !- Opening Area Fraction Schedule Name
  Autocalculate,                          !- Opening Effectiveness {dimensionless}
  270,                                    !- Effective Angle {deg}
  0.875,                                  !- Height Difference {m}
  0.45,                                   !- Discharge Coefficient for Opening
  -100,                                   !- Minimum Indoor Temperature {C}
  ,                                       !- Minimum Indoor Temperature Schedule Name
  100,                                    !- Maximum Indoor Temperature {C}
  ,                                       !- Maximum Indoor Temperature Schedule Name
  -100,                                   !- Delta Temperature {deltaC}
  ,                                       !- Delta Temperature Schedule Name
  22,                                     !- Minimum Outdoor Temperature {C}
  ,                                       !- Minimum Outdoor Temperature Schedule Name
  26,                                     !- Maximum Outdoor Temperature {C}
  ,                                       !- Maximum Outdoor Temperature Schedule Name
  40;                                     !- Maximum Wind Speed {m/s}

ZoneVentilation:WindandStackOpenArea,
  Aperture_43389538_Opening,              !- Name
  Room_1415_de86df45,                     !- Zone or Space Name
  11.69,                                  !- Opening Area {m2}
  Always On Discrete,                     !- Opening Area Fraction Schedule Name
  Autocalculate,                          !- Opening Effectiveness {dimensionless}
  270,                                    !- Effective Angle {deg}
  0.875,                                  !- Height Difference {m}
  0.45,                                   !- Discharge Coefficient for Opening
  -100,                                   !- Minimum Indoor Temperature {C}
  ,                                       !- Minimum Indoor Temperature Schedule Name
  100,                                    !- Maximum Indoor Temperature {C}
  ,                                       !- Maximum Indoor Temperature Schedule Name
  -100,                                   !- Delta Temperature {deltaC}
  ,                                       !- Delta Temperature Schedule Name
  22,                                     !- Minimum Outdoor Temperature {C}
  ,                                       !- Minimum Outdoor Temperature Schedule Name
  26,                                     !- Maximum Outdoor Temperature {C}
  ,                                       !- Maximum Outdoor Temperature Schedule Name
  40;                                     !- Maximum Wind Speed {m/s}

ZoneVentilation:WindandStackOpenArea,
  Aperture_270bd028_Opening,              !- Name
  Room_1415_de86df45,                     !- Zone or Space Name
  11.69,                                  !- Opening Area {m2}
  Always On Discrete,                     !- Opening Area Fraction Schedule Name
  Autocalculate,                          !- Opening Effectiveness {dimensionless}
  270,                                    !- Effective Angle {deg}
  0.875,                                  !- Height Difference {m}
  0.45,                                   !- Discharge Coefficient for Opening
  -100,                                   !- Minimum Indoor Temperature {C}
  ,                                       !- Minimum Indoor Temperature Schedule Name
  100,                                    !- Maximum Indoor Temperature {C}
  ,                                       !- Maximum Indoor Temperature Schedule Name
  -100,                                   !- Delta Temperature {deltaC}
  ,                                       !- Delta Temperature Schedule Name
  22,                                     !- Minimum Outdoor Temperature {C}
  ,                                       !- Minimum Outdoor Temperature Schedule Name
  26,                                     !- Maximum Outdoor Temperature {C}
  ,                                       !- Maximum Outdoor Temperature Schedule Name
  40;                                     !- Maximum Wind Speed {m/s}

ZoneVentilation:WindandStackOpenArea,
  Aperture_a21df2a2_Opening,              !- Name
  Room_1415_de86df45,                     !- Zone or Space Name
  11.69,                                  !- Opening Area {m2}
  Always On Discrete,                     !- Opening Area Fraction Schedule Name
  Autocalculate,                          !- Opening Effectiveness {dimensionless}
  270,                                    !- Effective Angle {deg}
  0.875,                                  !- Height Difference {m}
  0.45,                                   !- Discharge Coefficient for Opening
  -100,                                   !- Minimum Indoor Temperature {C}
  ,                                       !- Minimum Indoor Temperature Schedule Name
  100,                                    !- Maximum Indoor Temperature {C}
  ,                                       !- Maximum Indoor Temperature Schedule Name
  -100,                                   !- Delta Temperature {deltaC}
  ,                                       !- Delta Temperature Schedule Name
  22,                                     !- Minimum Outdoor Temperature {C}
  ,                                       !- Minimum Outdoor Temperature Schedule Name
  26,                                     !- Maximum Outdoor Temperature {C}
  ,                                       !- Maximum Outdoor Temperature Schedule Name
  40;                                     !- Maximum Wind Speed {m/s}

ZoneVentilation:WindandStackOpenArea,
  Aperture_45474dca_Opening,              !- Name
  Room_1415_de86df45,                     !- Zone or Space Name
  11.69,                                  !- Opening Area {m2}
  Always On Discrete,                     !- Opening Area Fraction Schedule Name
  Autocalculate,                          !- Opening Effectiveness {dimensionless}
  270,                                    !- Effective Angle {deg}
  0.875,                                  !- Height Difference {m}
  0.45,                                   !- Discharge Coefficient for Opening
  -100,                                   !- Minimum Indoor Temperature {C}
  ,                                       !- Minimum Indoor Temperature Schedule Name
  100,                                    !- Maximum Indoor Temperature {C}
  ,                                       !- Maximum Indoor Temperature Schedule Name
  -100,                                   !- Delta Temperature {deltaC}
  ,                                       !- Delta Temperature Schedule Name
  22,                                     !- Minimum Outdoor Temperature {C}
  ,                                       !- Minimum Outdoor Temperature Schedule Name
  26,                                     !- Maximum Outdoor Temperature {C}
  ,                                       !- Maximum Outdoor Temperature Schedule Name
  40;                                     !- Maximum Wind Speed {m/s}

ZoneVentilation:WindandStackOpenArea,
  Aperture_ffb30b51_Opening,              !- Name
  Room_1415_de86df45,                     !- Zone or Space Name
  11.69,                                  !- Opening Area {m2}
  Always On Discrete,                     !- Opening Area Fraction Schedule Name
  Autocalculate,                          !- Opening Effectiveness {dimensionless}
  270,                                    !- Effective Angle {deg}
  0.875,                                  !- Height Difference {m}
  0.45,                                   !- Discharge Coefficient for Opening
  -100,                                   !- Minimum Indoor Temperature {C}
  ,                                       !- Minimum Indoor Temperature Schedule Name
  100,                                    !- Maximum Indoor Temperature {C}
  ,                                       !- Maximum Indoor Temperature Schedule Name
  -100,                                   !- Delta Temperature {deltaC}
  ,                                       !- Delta Temperature Schedule Name
  22,                                     !- Minimum Outdoor Temperature {C}
  ,                                       !- Minimum Outdoor Temperature Schedule Name
  26,                                     !- Maximum Outdoor Temperature {C}
  ,                                       !- Maximum Outdoor Temperature Schedule Name
  40;                                     !- Maximum Wind Speed {m/s}

ZoneVentilation:WindandStackOpenArea,
  Aperture_871fcb6b_Opening,              !- Name
  Room_1415_de86df45,                     !- Zone or Space Name
  11.69,                                  !- Opening Area {m2}
  Always On Discrete,                     !- Opening Area Fraction Schedule Name
  Autocalculate,                          !- Opening Effectiveness {dimensionless}
  90,                                     !- Effective Angle {deg}
  0.875,                                  !- Height Difference {m}
  0.45,                                   !- Discharge Coefficient for Opening
  -100,                                   !- Minimum Indoor Temperature {C}
  ,                                       !- Minimum Indoor Temperature Schedule Name
  100,                                    !- Maximum Indoor Temperature {C}
  ,                                       !- Maximum Indoor Temperature Schedule Name
  -100,                                   !- Delta Temperature {deltaC}
  ,                                       !- Delta Temperature Schedule Name
  22,                                     !- Minimum Outdoor Temperature {C}
  ,                                       !- Minimum Outdoor Temperature Schedule Name
  26,                                     !- Maximum Outdoor Temperature {C}
  ,                                       !- Maximum Outdoor Temperature Schedule Name
  40;                                     !- Maximum Wind Speed {m/s}

ZoneVentilation:WindandStackOpenArea,
  Aperture_96058a53_Opening,              !- Name
  Room_1415_de86df45,                     !- Zone or Space Name
  11.69,                                  !- Opening Area {m2}
  Always On Discrete,                     !- Opening Area Fraction Schedule Name
  Autocalculate,                          !- Opening Effectiveness {dimensionless}
  90,                                     !- Effective Angle {deg}
  0.875,                                  !- Height Difference {m}
  0.45,                                   !- Discharge Coefficient for Opening
  -100,                                   !- Minimum Indoor Temperature {C}
  ,                                       !- Minimum Indoor Temperature Schedule Name
  100,                                    !- Maximum Indoor Temperature {C}
  ,                                       !- Maximum Indoor Temperature Schedule Name
  -100,                                   !- Delta Temperature {deltaC}
  ,                                       !- Delta Temperature Schedule Name
  22,                                     !- Minimum Outdoor Temperature {C}
  ,                                       !- Minimum Outdoor Temperature Schedule Name
  26,                                     !- Maximum Outdoor Temperature {C}
  ,                                       !- Maximum Outdoor Temperature Schedule Name
  40;                                     !- Maximum Wind Speed {m/s}

ZoneVentilation:WindandStackOpenArea,
  Aperture_8c6a82ce_Opening,              !- Name
  Room_1415_de86df45,                     !- Zone or Space Name
  11.69,                                  !- Opening Area {m2}
  Always On Discrete,                     !- Opening Area Fraction Schedule Name
  Autocalculate,                          !- Opening Effectiveness {dimensionless}
  90,                                     !- Effective Angle {deg}
  0.875,                                  !- Height Difference {m}
  0.45,                                   !- Discharge Coefficient for Opening
  -100,                                   !- Minimum Indoor Temperature {C}
  ,                                       !- Minimum Indoor Temperature Schedule Name
  100,                                    !- Maximum Indoor Temperature {C}
  ,                                       !- Maximum Indoor Temperature Schedule Name
  -100,                                   !- Delta Temperature {deltaC}
  ,                                       !- Delta Temperature Schedule Name
  22,                                     !- Minimum Outdoor Temperature {C}
  ,                                       !- Minimum Outdoor Temperature Schedule Name
  26,                                     !- Maximum Outdoor Temperature {C}
  ,                                       !- Maximum Outdoor Temperature Schedule Name
  40;                                     !- Maximum Wind Speed {m/s}

ZoneVentilation:WindandStackOpenArea,
  Aperture_c5d0775a_Opening,              !- Name
  Room_1415_de86df45,                     !- Zone or Space Name
  11.69,                                  !- Opening Area {m2}
  Always On Discrete,                     !- Opening Area Fraction Schedule Name
  Autocalculate,                          !- Opening Effectiveness {dimensionless}
  90,                                     !- Effective Angle {deg}
  0.875,                                  !- Height Difference {m}
  0.45,                                   !- Discharge Coefficient for Opening
  -100,                                   !- Minimum Indoor Temperature {C}
  ,                                       !- Minimum Indoor Temperature Schedule Name
  100,                                    !- Maximum Indoor Temperature {C}
  ,                                       !- Maximum Indoor Temperature Schedule Name
  -100,                                   !- Delta Temperature {deltaC}
  ,                                       !- Delta Temperature Schedule Name
  22,                                     !- Minimum Outdoor Temperature {C}
  ,                                       !- Minimum Outdoor Temperature Schedule Name
  26,                                     !- Maximum Outdoor Temperature {C}
  ,                                       !- Maximum Outdoor Temperature Schedule Name
  40;                                     !- Maximum Wind Speed {m/s}

ZoneVentilation:WindandStackOpenArea,
  Aperture_de81bf6c_Opening,              !- Name
  Room_1415_de86df45,                     !- Zone or Space Name
  11.69,                                  !- Opening Area {m2}
  Always On Discrete,                     !- Opening Area Fraction Schedule Name
  Autocalculate,                          !- Opening Effectiveness {dimensionless}
  0,                                      !- Effective Angle {deg}
  0.875,                                  !- Height Difference {m}
  0.45,                                   !- Discharge Coefficient for Opening
  -100,                                   !- Minimum Indoor Temperature {C}
  ,                                       !- Minimum Indoor Temperature Schedule Name
  100,                                    !- Maximum Indoor Temperature {C}
  ,                                       !- Maximum Indoor Temperature Schedule Name
  -100,                                   !- Delta Temperature {deltaC}
  ,                                       !- Delta Temperature Schedule Name
  22,                                     !- Minimum Outdoor Temperature {C}
  ,                                       !- Minimum Outdoor Temperature Schedule Name
  26,                                     !- Maximum Outdoor Temperature {C}
  ,                                       !- Maximum Outdoor Temperature Schedule Name
  40;                                     !- Maximum Wind Speed {m/s}

ZoneVentilation:WindandStackOpenArea,
  Aperture_1eb31950_Opening,              !- Name
  Room_1415_de86df45,                     !- Zone or Space Name
  11.69,                                  !- Opening Area {m2}
  Always On Discrete,                     !- Opening Area Fraction Schedule Name
  Autocalculate,                          !- Opening Effectiveness {dimensionless}
  0,                                      !- Effective Angle {deg}
  0.875,                                  !- Height Difference {m}
  0.45,                                   !- Discharge Coefficient for Opening
  -100,                                   !- Minimum Indoor Temperature {C}
  ,                                       !- Minimum Indoor Temperature Schedule Name
  100,                                    !- Maximum Indoor Temperature {C}
  ,                                       !- Maximum Indoor Temperature Schedule Name
  -100,                                   !- Delta Temperature {deltaC}
  ,                                       !- Delta Temperature Schedule Name
  22,                                     !- Minimum Outdoor Temperature {C}
  ,                                       !- Minimum Outdoor Temperature Schedule Name
  26,                                     !- Maximum Outdoor Temperature {C}
  ,                                       !- Maximum Outdoor Temperature Schedule Name
  40;                                     !- Maximum Wind Speed {m/s}

ZoneVentilation:WindandStackOpenArea,
  Aperture_7ff66292_Opening,              !- Name
  Room_1415_de86df45,                     !- Zone or Space Name
  3.248,                                  !- Opening Area {m2}
  Always On Discrete,                     !- Opening Area Fraction Schedule Name
  Autocalculate,                          !- Opening Effectiveness {dimensionless}
  0,                                      !- Effective Angle {deg}
  0.875,                                  !- Height Difference {m}
  0.45,                                   !- Discharge Coefficient for Opening
  -100,                                   !- Minimum Indoor Temperature {C}
  ,                                       !- Minimum Indoor Temperature Schedule Name
  100,                                    !- Maximum Indoor Temperature {C}
  ,                                       !- Maximum Indoor Temperature Schedule Name
  -100,                                   !- Delta Temperature {deltaC}
  ,                                       !- Delta Temperature Schedule Name
  22,                                     !- Minimum Outdoor Temperature {C}
  ,                                       !- Minimum Outdoor Temperature Schedule Name
  26,                                     !- Maximum Outdoor Temperature {C}
  ,                                       !- Maximum Outdoor Temperature Schedule Name
  40;                                     !- Maximum Wind Speed {m/s}

ZoneVentilation:WindandStackOpenArea,
  Aperture_fa1ee5ef_Opening,              !- Name
  Room_1415_de86df45,                     !- Zone or Space Name
  11.69,                                  !- Opening Area {m2}
  Always On Discrete,                     !- Opening Area Fraction Schedule Name
  Autocalculate,                          !- Opening Effectiveness {dimensionless}
  0,                                      !- Effective Angle {deg}
  0.875,                                  !- Height Difference {m}
  0.45,                                   !- Discharge Coefficient for Opening
  -100,                                   !- Minimum Indoor Temperature {C}
  ,                                       !- Minimum Indoor Temperature Schedule Name
  100,                                    !- Maximum Indoor Temperature {C}
  ,                                       !- Maximum Indoor Temperature Schedule Name
  -100,                                   !- Delta Temperature {deltaC}
  ,                                       !- Delta Temperature Schedule Name
  22,                                     !- Minimum Outdoor Temperature {C}
  ,                                       !- Minimum Outdoor Temperature Schedule Name
  26,                                     !- Maximum Outdoor Temperature {C}
  ,                                       !- Maximum Outdoor Temperature Schedule Name
  40;                                     !- Maximum Wind Speed {m/s}

ZoneVentilation:WindandStackOpenArea,
  Aperture_39c7eb68_Opening,              !- Name
  Room_1415_de86df45,                     !- Zone or Space Name
  11.69,                                  !- Opening Area {m2}
  Always On Discrete,                     !- Opening Area Fraction Schedule Name
  Autocalculate,                          !- Opening Effectiveness {dimensionless}
  0,                                      !- Effective Angle {deg}
  0.875,                                  !- Height Difference {m}
  0.45,                                   !- Discharge Coefficient for Opening
  -100,                                   !- Minimum Indoor Temperature {C}
  ,                                       !- Minimum Indoor Temperature Schedule Name
  100,                                    !- Maximum Indoor Temperature {C}
  ,                                       !- Maximum Indoor Temperature Schedule Name
  -100,                                   !- Delta Temperature {deltaC}
  ,                                       !- Delta Temperature Schedule Name
  22,                                     !- Minimum Outdoor Temperature {C}
  ,                                       !- Minimum Outdoor Temperature Schedule Name
  26,                                     !- Maximum Outdoor Temperature {C}
  ,                                       !- Maximum Outdoor Temperature Schedule Name
  40;                                     !- Maximum Wind Speed {m/s}

ZoneVentilation:WindandStackOpenArea,
  Aperture_af82165c_Opening,              !- Name
  Room_1415_de86df45,                     !- Zone or Space Name
  11.69,                                  !- Opening Area {m2}
  Always On Discrete,                     !- Opening Area Fraction Schedule Name
  Autocalculate,                          !- Opening Effectiveness {dimensionless}
  270,                                    !- Effective Angle {deg}
  0.875,                                  !- Height Difference {m}
  0.45,                                   !- Discharge Coefficient for Opening
  -100,                                   !- Minimum Indoor Temperature {C}
  ,                                       !- Minimum Indoor Temperature Schedule Name
  100,                                    !- Maximum Indoor Temperature {C}
  ,                                       !- Maximum Indoor Temperature Schedule Name
  -100,                                   !- Delta Temperature {deltaC}
  ,                                       !- Delta Temperature Schedule Name
  22,                                     !- Minimum Outdoor Temperature {C}
  ,                                       !- Minimum Outdoor Temperature Schedule Name
  26,                                     !- Maximum Outdoor Temperature {C}
  ,                                       !- Maximum Outdoor Temperature Schedule Name
  40;                                     !- Maximum Wind Speed {m/s}

ZoneVentilation:WindandStackOpenArea,
  Aperture_f64f3c1a_Opening,              !- Name
  Room_1415_de86df45,                     !- Zone or Space Name
  11.69,                                  !- Opening Area {m2}
  Always On Discrete,                     !- Opening Area Fraction Schedule Name
  Autocalculate,                          !- Opening Effectiveness {dimensionless}
  270,                                    !- Effective Angle {deg}
  0.875,                                  !- Height Difference {m}
  0.45,                                   !- Discharge Coefficient for Opening
  -100,                                   !- Minimum Indoor Temperature {C}
  ,                                       !- Minimum Indoor Temperature Schedule Name
  100,                                    !- Maximum Indoor Temperature {C}
  ,                                       !- Maximum Indoor Temperature Schedule Name
  -100,                                   !- Delta Temperature {deltaC}
  ,                                       !- Delta Temperature Schedule Name
  22,                                     !- Minimum Outdoor Temperature {C}
  ,                                       !- Minimum Outdoor Temperature Schedule Name
  26,                                     !- Maximum Outdoor Temperature {C}
  ,                                       !- Maximum Outdoor Temperature Schedule Name
  40;                                     !- Maximum Wind Speed {m/s}

ZoneVentilation:WindandStackOpenArea,
  Aperture_34cb42de_Opening,              !- Name
  Room_1415_de86df45,                     !- Zone or Space Name
  11.69,                                  !- Opening Area {m2}
  Always On Discrete,                     !- Opening Area Fraction Schedule Name
  Autocalculate,                          !- Opening Effectiveness {dimensionless}
  270,                                    !- Effective Angle {deg}
  0.875,                                  !- Height Difference {m}
  0.45,                                   !- Discharge Coefficient for Opening
  -100,                                   !- Minimum Indoor Temperature {C}
  ,                                       !- Minimum Indoor Temperature Schedule Name
  100,                                    !- Maximum Indoor Temperature {C}
  ,                                       !- Maximum Indoor Temperature Schedule Name
  -100,                                   !- Delta Temperature {deltaC}
  ,                                       !- Delta Temperature Schedule Name
  22,                                     !- Minimum Outdoor Temperature {C}
  ,                                       !- Minimum Outdoor Temperature Schedule Name
  26,                                     !- Maximum Outdoor Temperature {C}
  ,                                       !- Maximum Outdoor Temperature Schedule Name
  40;                                     !- Maximum Wind Speed {m/s}

ZoneVentilation:WindandStackOpenArea,
  Aperture_cb0ea206_Opening,              !- Name
  Room_1415_de86df45,                     !- Zone or Space Name
  11.69,                                  !- Opening Area {m2}
  Always On Discrete,                     !- Opening Area Fraction Schedule Name
  Autocalculate,                          !- Opening Effectiveness {dimensionless}
  270,                                    !- Effective Angle {deg}
  0.875,                                  !- Height Difference {m}
  0.45,                                   !- Discharge Coefficient for Opening
  -100,                                   !- Minimum Indoor Temperature {C}
  ,                                       !- Minimum Indoor Temperature Schedule Name
  100,                                    !- Maximum Indoor Temperature {C}
  ,                                       !- Maximum Indoor Temperature Schedule Name
  -100,                                   !- Delta Temperature {deltaC}
  ,                                       !- Delta Temperature Schedule Name
  22,                                     !- Minimum Outdoor Temperature {C}
  ,                                       !- Minimum Outdoor Temperature Schedule Name
  26,                                     !- Maximum Outdoor Temperature {C}
  ,                                       !- Maximum Outdoor Temperature Schedule Name
  40;                                     !- Maximum Wind Speed {m/s}

ZoneVentilation:WindandStackOpenArea,
  Aperture_6fc27594_Opening,              !- Name
  Room_1415_de86df45,                     !- Zone or Space Name
  11.69,                                  !- Opening Area {m2}
  Always On Discrete,                     !- Opening Area Fraction Schedule Name
  Autocalculate,                          !- Opening Effectiveness {dimensionless}
  90,                                     !- Effective Angle {deg}
  0.875,                                  !- Height Difference {m}
  0.45,                                   !- Discharge Coefficient for Opening
  -100,                                   !- Minimum Indoor Temperature {C}
  ,                                       !- Minimum Indoor Temperature Schedule Name
  100,                                    !- Maximum Indoor Temperature {C}
  ,                                       !- Maximum Indoor Temperature Schedule Name
  -100,                                   !- Delta Temperature {deltaC}
  ,                                       !- Delta Temperature Schedule Name
  22,                                     !- Minimum Outdoor Temperature {C}
  ,                                       !- Minimum Outdoor Temperature Schedule Name
  26,                                     !- Maximum Outdoor Temperature {C}
  ,                                       !- Maximum Outdoor Temperature Schedule Name
  40;                                     !- Maximum Wind Speed {m/s}

ZoneVentilation:WindandStackOpenArea,
  Aperture_85b4c0fd_Opening,              !- Name
  Room_1415_de86df45,                     !- Zone or Space Name
  11.69,                                  !- Opening Area {m2}
  Always On Discrete,                     !- Opening Area Fraction Schedule Name
  Autocalculate,                          !- Opening Effectiveness {dimensionless}
  90,                                     !- Effective Angle {deg}
  0.875,                                  !- Height Difference {m}
  0.45,                                   !- Discharge Coefficient for Opening
  -100,                                   !- Minimum Indoor Temperature {C}
  ,                                       !- Minimum Indoor Temperature Schedule Name
  100,                                    !- Maximum Indoor Temperature {C}
  ,                                       !- Maximum Indoor Temperature Schedule Name
  -100,                                   !- Delta Temperature {deltaC}
  ,                                       !- Delta Temperature Schedule Name
  22,                                     !- Minimum Outdoor Temperature {C}
  ,                                       !- Minimum Outdoor Temperature Schedule Name
  26,                                     !- Maximum Outdoor Temperature {C}
  ,                                       !- Maximum Outdoor Temperature Schedule Name
  40;                                     !- Maximum Wind Speed {m/s}

ZoneVentilation:WindandStackOpenArea,
  Aperture_3b8dee72_Opening,              !- Name
  Room_1415_de86df45,                     !- Zone or Space Name
  11.69,                                  !- Opening Area {m2}
  Always On Discrete,                     !- Opening Area Fraction Schedule Name
  Autocalculate,                          !- Opening Effectiveness {dimensionless}
  90,                                     !- Effective Angle {deg}
  0.875,                                  !- Height Difference {m}
  0.45,                                   !- Discharge Coefficient for Opening
  -100,                                   !- Minimum Indoor Temperature {C}
  ,                                       !- Minimum Indoor Temperature Schedule Name
  100,                                    !- Maximum Indoor Temperature {C}
  ,                                       !- Maximum Indoor Temperature Schedule Name
  -100,                                   !- Delta Temperature {deltaC}
  ,                                       !- Delta Temperature Schedule Name
  22,                                     !- Minimum Outdoor Temperature {C}
  ,                                       !- Minimum Outdoor Temperature Schedule Name
  26,                                     !- Maximum Outdoor Temperature {C}
  ,                                       !- Maximum Outdoor Temperature Schedule Name
  40;                                     !- Maximum Wind Speed {m/s}

ZoneVentilation:WindandStackOpenArea,
  Aperture_ff5ac7ff_Opening,              !- Name
  Room_1415_de86df45,                     !- Zone or Space Name
  11.69,                                  !- Opening Area {m2}
  Always On Discrete,                     !- Opening Area Fraction Schedule Name
  Autocalculate,                          !- Opening Effectiveness {dimensionless}
  90,                                     !- Effective Angle {deg}
  0.875,                                  !- Height Difference {m}
  0.45,                                   !- Discharge Coefficient for Opening
  -100,                                   !- Minimum Indoor Temperature {C}
  ,                                       !- Minimum Indoor Temperature Schedule Name
  100,                                    !- Maximum Indoor Temperature {C}
  ,                                       !- Maximum Indoor Temperature Schedule Name
  -100,                                   !- Delta Temperature {deltaC}
  ,                                       !- Delta Temperature Schedule Name
  22,                                     !- Minimum Outdoor Temperature {C}
  ,                                       !- Minimum Outdoor Temperature Schedule Name
  26,                                     !- Maximum Outdoor Temperature {C}
  ,                                       !- Maximum Outdoor Temperature Schedule Name
  40;                                     !- Maximum Wind Speed {m/s}

ZoneVentilation:WindandStackOpenArea,
  Aperture_9f46e1a6_Opening,              !- Name
  Room_1415_de86df45,                     !- Zone or Space Name
  7.532,                                  !- Opening Area {m2}
  Always On Discrete,                     !- Opening Area Fraction Schedule Name
  Autocalculate,                          !- Opening Effectiveness {dimensionless}
  0,                                      !- Effective Angle {deg}
  0.875,                                  !- Height Difference {m}
  0.45,                                   !- Discharge Coefficient for Opening
  -100,                                   !- Minimum Indoor Temperature {C}
  ,                                       !- Minimum Indoor Temperature Schedule Name
  100,                                    !- Maximum Indoor Temperature {C}
  ,                                       !- Maximum Indoor Temperature Schedule Name
  -100,                                   !- Delta Temperature {deltaC}
  ,                                       !- Delta Temperature Schedule Name
  22,                                     !- Minimum Outdoor Temperature {C}
  ,                                       !- Minimum Outdoor Temperature Schedule Name
  26,                                     !- Maximum Outdoor Temperature {C}
  ,                                       !- Maximum Outdoor Temperature Schedule Name
  40;                                     !- Maximum Wind Speed {m/s}

ZoneVentilation:WindandStackOpenArea,
  Aperture_5f6426a9_Opening,              !- Name
  Room_1415_de86df45,                     !- Zone or Space Name
  11.69,                                  !- Opening Area {m2}
  Always On Discrete,                     !- Opening Area Fraction Schedule Name
  Autocalculate,                          !- Opening Effectiveness {dimensionless}
  0,                                      !- Effective Angle {deg}
  0.875,                                  !- Height Difference {m}
  0.45,                                   !- Discharge Coefficient for Opening
  -100,                                   !- Minimum Indoor Temperature {C}
  ,                                       !- Minimum Indoor Temperature Schedule Name
  100,                                    !- Maximum Indoor Temperature {C}
  ,                                       !- Maximum Indoor Temperature Schedule Name
  -100,                                   !- Delta Temperature {deltaC}
  ,                                       !- Delta Temperature Schedule Name
  22,                                     !- Minimum Outdoor Temperature {C}
  ,                                       !- Minimum Outdoor Temperature Schedule Name
  26,                                     !- Maximum Outdoor Temperature {C}
  ,                                       !- Maximum Outdoor Temperature Schedule Name
  40;                                     !- Maximum Wind Speed {m/s}

ZoneVentilation:WindandStackOpenArea,
  Aperture_abc0eb44_Opening,              !- Name
  Room_1415_de86df45,                     !- Zone or Space Name
  11.69,                                  !- Opening Area {m2}
  Always On Discrete,                     !- Opening Area Fraction Schedule Name
  Autocalculate,                          !- Opening Effectiveness {dimensionless}
  0,                                      !- Effective Angle {deg}
  0.875,                                  !- Height Difference {m}
  0.45,                                   !- Discharge Coefficient for Opening
  -100,                                   !- Minimum Indoor Temperature {C}
  ,                                       !- Minimum Indoor Temperature Schedule Name
  100,                                    !- Maximum Indoor Temperature {C}
  ,                                       !- Maximum Indoor Temperature Schedule Name
  -100,                                   !- Delta Temperature {deltaC}
  ,                                       !- Delta Temperature Schedule Name
  22,                                     !- Minimum Outdoor Temperature {C}
  ,                                       !- Minimum Outdoor Temperature Schedule Name
  26,                                     !- Maximum Outdoor Temperature {C}
  ,                                       !- Maximum Outdoor Temperature Schedule Name
  40;                                     !- Maximum Wind Speed {m/s}

ZoneHVAC:EquipmentConnections,
  Room_1415_de86df45,                     !- Zone Name
  Room_1415_de86df45 Equipment List,      !- Zone Conditioning Equipment List Name
  Room_1415_de86df45 Inlet Node List,     !- Zone Air Inlet Node or NodeList Name
  Room_1415_de86df45 Exhaust Node List,   !- Zone Air Exhaust Node or NodeList Name
  Node 7;                                 !- Zone Air Node Name

NodeList,
  Room_1415_de86df45 Inlet Node List,     !- Name
  Node 31;                                !- Node Name 1

NodeList,
  Room_1415_de86df45 Exhaust Node List,   !- Name
  Node 30;                                !- Node Name 1

ZoneHVAC:IdealLoadsAirSystem,
  Room_1415_de86df45 Ideal Loads Air System, !- Name
  ,                                       !- Availability Schedule Name
  Node 31,                                !- Zone Supply Air Node Name
  Node 30,                                !- Zone Exhaust Air Node Name
  ,                                       !- System Inlet Air Node Name
  50,                                     !- Maximum Heating Supply Air Temperature {C}
  13,                                     !- Minimum Cooling Supply Air Temperature {C}
  ,                                       !- Maximum Heating Supply Air Humidity Ratio {kgWater/kgDryAir}
  ,                                       !- Minimum Cooling Supply Air Humidity Ratio {kgWater/kgDryAir}
  LimitCapacity,                          !- Heating Limit
  ,                                       !- Maximum Heating Air Flow Rate {m3/s}
  Autosize,                               !- Maximum Sensible Heating Capacity {W}
  LimitFlowRateAndCapacity,               !- Cooling Limit
  Autosize,                               !- Maximum Cooling Air Flow Rate {m3/s}
  Autosize,                               !- Maximum Total Cooling Capacity {W}
  WeeklySchedule_2856ceac,                !- Heating Availability Schedule Name
  WeeklySchedule_2856ceac,                !- Cooling Availability Schedule Name
  None,                                   !- Dehumidification Control Type
  ,                                       !- Cooling Sensible Heat Ratio {dimensionless}
  ,                                       !- Humidification Control Type
  Ventilation_b96face6,                   !- Design Specification Outdoor Air Object Name
  ,                                       !- Outdoor Air Inlet Node Name
  None,                                   !- Demand Controlled Ventilation Type
  DifferentialDryBulb,                    !- Outdoor Air Economizer Type
  ,                                       !- Heat Recovery Type
  0,                                      !- Sensible Heat Recovery Effectiveness {dimensionless}
  0;                                      !- Latent Heat Recovery Effectiveness {dimensionless}

ZoneHVAC:EquipmentList,
  Room_1415_de86df45 Equipment List,      !- Name
  SequentialLoad,                         !- Load Distribution Scheme
  ZoneHVAC:IdealLoadsAirSystem,           !- Zone Equipment Object Type 1
  Room_1415_de86df45 Ideal Loads Air System, !- Zone Equipment Name 1
  1,                                      !- Zone Equipment Cooling Sequence 1
  1,                                      !- Zone Equipment Heating or No-Load Sequence 1
  ,                                       !- Zone Equipment Sequential Cooling Fraction Schedule Name 1
  ;                                       !- Zone Equipment Sequential Heating Fraction Schedule Name 1

Sizing:Zone,
  Room_1415_de86df45,                     !- Zone or ZoneList Name
  SupplyAirTemperature,                   !- Zone Cooling Design Supply Air Temperature Input Method
  14,                                     !- Zone Cooling Design Supply Air Temperature {C}
  11.11,                                  !- Zone Cooling Design Supply Air Temperature Difference {deltaC}
  SupplyAirTemperature,                   !- Zone Heating Design Supply Air Temperature Input Method
  40,                                     !- Zone Heating Design Supply Air Temperature {C}
  11.11,                                  !- Zone Heating Design Supply Air Temperature Difference {deltaC}
  0.0085,                                 !- Zone Cooling Design Supply Air Humidity Ratio {kgWater/kgDryAir}
  0.008,                                  !- Zone Heating Design Supply Air Humidity Ratio {kgWater/kgDryAir}
  Room_1415_de86df45 DSOA Space List,     !- Design Specification Outdoor Air Object Name
  ,                                       !- Zone Heating Sizing Factor
  ,                                       !- Zone Cooling Sizing Factor
  DesignDay,                              !- Cooling Design Air Flow Method
  0,                                      !- Cooling Design Air Flow Rate {m3/s}
  0.000762,                               !- Cooling Minimum Air Flow per Zone Floor Area {m3/s-m2}
  0,                                      !- Cooling Minimum Air Flow {m3/s}
  0,                                      !- Cooling Minimum Air Flow Fraction
  DesignDay,                              !- Heating Design Air Flow Method
  0,                                      !- Heating Design Air Flow Rate {m3/s}
  0.002032,                               !- Heating Maximum Air Flow per Zone Floor Area {m3/s-m2}
  0.1415762,                              !- Heating Maximum Air Flow {m3/s}
  0.3,                                    !- Heating Maximum Air Flow Fraction
  ,                                       !- Design Specification Zone Air Distribution Object Name
  No,                                     !- Account for Dedicated Outdoor Air System
  ,                                       !- Dedicated Outdoor Air System Control Strategy
  ,                                       !- Dedicated Outdoor Air Low Setpoint Temperature for Design {C}
  ,                                       !- Dedicated Outdoor Air High Setpoint Temperature for Design {C}
  Sensible Load Only No Latent Load,      !- Zone Load Sizing Method
  HumidityRatioDifference,                !- Zone Latent Cooling Design Supply Air Humidity Ratio Input Method
  ,                                       !- Zone Dehumidification Design Supply Air Humidity Ratio {kgWater/kgDryAir}
  0.005,                                  !- Zone Cooling Design Supply Air Humidity Ratio Difference {kgWater/kgDryAir}
  HumidityRatioDifference,                !- Zone Latent Heating Design Supply Air Humidity Ratio Input Method
  ,                                       !- Zone Humidification Design Supply Air Humidity Ratio {kgWater/kgDryAir}
  0.005;                                  !- Zone Humidification Design Supply Air Humidity Ratio Difference {kgWater/kgDryAir}

DesignSpecification:OutdoorAir:SpaceList,
  Room_1415_de86df45 DSOA Space List,     !- Name
  Room_1415_de86df45_Space,               !- Space Name 1
  Ventilation_b96face6;                   !- Space Design Specification Outdoor Air Object Name 1

Zone,
  Room_1416_dea82892,                     !- Name
  ,                                       !- Direction of Relative North {deg}
  0,                                      !- X Origin {m}
  0,                                      !- Y Origin {m}
  0,                                      !- Z Origin {m}
  ,                                       !- Type
  1,                                      !- Multiplier
  4.5,                                    !- Ceiling Height {m}
  1399.68,                                !- Volume {m3}
  ,                                       !- Floor Area {m2}
  ,                                       !- Zone Inside Convection Algorithm
  ,                                       !- Zone Outside Convection Algorithm
  Yes;                                    !- Part of Total Floor Area

Space,
  Room_1416_dea82892_Space,               !- Name
  Room_1416_dea82892,                     !- Zone Name
  ,                                       !- Ceiling Height {m}
  ,                                       !- Volume {m3}
  ,                                       !- Floor Area {m2}
  ProgramType_f9e2e425;                   !- Space Type

BuildingSurface:Detailed,
  Room_1416_dea82892..Face0,              !- Name
  Floor,                                  !- Surface Type
  OpaqueConstruction_47cf3687,            !- Construction Name
  Room_1416_dea82892,                     !- Zone Name
  Room_1416_dea82892_Space,               !- Space Name
  Ground,                                 !- Outside Boundary Condition
  ,                                       !- Outside Boundary Condition Object
  NoSun,                                  !- Sun Exposure
  NoWind,                                 !- Wind Exposure
  ,                                       !- View Factor to Ground
  ,                                       !- Number of Vertices
  36, 43.2, 0,                            !- X,Y,Z Vertex 1 {m}
  36, 28.8, 0,                            !- X,Y,Z Vertex 2 {m}
  14.4, 28.8, 0,                          !- X,Y,Z Vertex 3 {m}
  14.4, 43.2, 0;                          !- X,Y,Z Vertex 4 {m}

BuildingSurface:Detailed,
  Room_1416_dea82892..Face1,              !- Name
  Ceiling,                                !- Surface Type
  OpaqueConstruction_47cf3687,            !- Construction Name
  Room_1416_dea82892,                     !- Zone Name
  Room_1416_dea82892_Space,               !- Space Name
  Surface,                                !- Outside Boundary Condition
  Room_1418_b43ea9f0..Face0,              !- Outside Boundary Condition Object
  NoSun,                                  !- Sun Exposure
  NoWind,                                 !- Wind Exposure
  ,                                       !- View Factor to Ground
  ,                                       !- Number of Vertices
  14.4, 43.2, 4.5,                        !- X,Y,Z Vertex 1 {m}
  14.4, 28.8, 4.5,                        !- X,Y,Z Vertex 2 {m}
  36, 28.8, 4.5,                          !- X,Y,Z Vertex 3 {m}
  36, 43.2, 4.5;                          !- X,Y,Z Vertex 4 {m}

BuildingSurface:Detailed,
  Room_1416_dea82892..Face2,              !- Name
  Wall,                                   !- Surface Type
  OpaqueConstruction_47cf3687,            !- Construction Name
  Room_1416_dea82892,                     !- Zone Name
  Room_1416_dea82892_Space,               !- Space Name
  Surface,                                !- Outside Boundary Condition
  Room_1409_470e73cc..Face5,              !- Outside Boundary Condition Object
  NoSun,                                  !- Sun Exposure
  NoWind,                                 !- Wind Exposure
  ,                                       !- View Factor to Ground
  ,                                       !- Number of Vertices
  36, 43.2, 4.5,                          !- X,Y,Z Vertex 1 {m}
  36, 43.2, 0,                            !- X,Y,Z Vertex 2 {m}
  14.4, 43.2, 0,                          !- X,Y,Z Vertex 3 {m}
  14.4, 43.2, 4.5;                        !- X,Y,Z Vertex 4 {m}

FenestrationSurface:Detailed,
  Aperture_6fe60b1e,                      !- Name
  Window,                                 !- Surface Type
  WindowConstruction_1dfe9b5d,            !- Construction Name
  Room_1416_dea82892..Face2,              !- Building Surface Name
  Ajd_Aperture_6fe60b1e,                  !- Outside Boundary Condition Object
  ,                                       !- View Factor to Ground
  ,                                       !- Frame and Divider Name
  ,                                       !- Multiplier
  ,                                       !- Number of Vertices
  29.8, 43.2, 2.3,                        !- X,Y,Z Vertex 1 {m}
  29.8, 43.2, 0.2,                        !- X,Y,Z Vertex 2 {m}
  28.9, 43.2, 0.2,                        !- X,Y,Z Vertex 3 {m}
  28.9, 43.2, 2.3;                        !- X,Y,Z Vertex 4 {m}

FenestrationSurface:Detailed,
  Aperture_a2c12bc5,                      !- Name
  Window,                                 !- Surface Type
  WindowConstruction_1dfe9b5d,            !- Construction Name
  Room_1416_dea82892..Face2,              !- Building Surface Name
  Ajd_Aperture_a2c12bc5,                  !- Outside Boundary Condition Object
  ,                                       !- View Factor to Ground
  ,                                       !- Frame and Divider Name
  ,                                       !- Multiplier
  ,                                       !- Number of Vertices
  15.4, 43.2, 2.3,                        !- X,Y,Z Vertex 1 {m}
  15.4, 43.2, 0.2,                        !- X,Y,Z Vertex 2 {m}
  14.5, 43.2, 0.2,                        !- X,Y,Z Vertex 3 {m}
  14.5, 43.2, 2.3;                        !- X,Y,Z Vertex 4 {m}

FenestrationSurface:Detailed,
  Aperture_a2c84a27,                      !- Name
  Window,                                 !- Surface Type
  WindowConstruction_1dfe9b5d,            !- Construction Name
  Room_1416_dea82892..Face2,              !- Building Surface Name
  Ajd_Aperture_a2c84a27,                  !- Outside Boundary Condition Object
  ,                                       !- View Factor to Ground
  ,                                       !- Frame and Divider Name
  ,                                       !- Multiplier
  ,                                       !- Number of Vertices
  22.6, 43.2, 2.3,                        !- X,Y,Z Vertex 1 {m}
  22.6, 43.2, 0.2,                        !- X,Y,Z Vertex 2 {m}
  21.7, 43.2, 0.2,                        !- X,Y,Z Vertex 3 {m}
  21.7, 43.2, 2.3;                        !- X,Y,Z Vertex 4 {m}

FenestrationSurface:Detailed,
  Aperture_b4da073a,                      !- Name
  Window,                                 !- Surface Type
  WindowConstruction_1dfe9b5d,            !- Construction Name
  Room_1416_dea82892..Face2,              !- Building Surface Name
  Ajd_Aperture_b4da073a,                  !- Outside Boundary Condition Object
  ,                                       !- View Factor to Ground
  ,                                       !- Frame and Divider Name
  ,                                       !- Multiplier
  ,                                       !- Number of Vertices
  21.5, 43.2, 2.3,                        !- X,Y,Z Vertex 1 {m}
  21.5, 43.2, 0.2,                        !- X,Y,Z Vertex 2 {m}
  20.7, 43.2, 0.2,                        !- X,Y,Z Vertex 3 {m}
  20.7, 43.2, 2.3;                        !- X,Y,Z Vertex 4 {m}

FenestrationSurface:Detailed,
  Aperture_e6eb20e5,                      !- Name
  Window,                                 !- Surface Type
  WindowConstruction_1dfe9b5d,            !- Construction Name
  Room_1416_dea82892..Face2,              !- Building Surface Name
  Ajd_Aperture_e6eb20e5,                  !- Outside Boundary Condition Object
  ,                                       !- View Factor to Ground
  ,                                       !- Frame and Divider Name
  ,                                       !- Multiplier
  ,                                       !- Number of Vertices
  35.9, 43.2, 2.3,                        !- X,Y,Z Vertex 1 {m}
  35.9, 43.2, 0.2,                        !- X,Y,Z Vertex 2 {m}
  35.1, 43.2, 0.2,                        !- X,Y,Z Vertex 3 {m}
  35.1, 43.2, 2.3;                        !- X,Y,Z Vertex 4 {m}

FenestrationSurface:Detailed,
  Aperture_f13174d5,                      !- Name
  Window,                                 !- Surface Type
  WindowConstruction_1dfe9b5d,            !- Construction Name
  Room_1416_dea82892..Face2,              !- Building Surface Name
  Ajd_Aperture_f13174d5,                  !- Outside Boundary Condition Object
  ,                                       !- View Factor to Ground
  ,                                       !- Frame and Divider Name
  ,                                       !- Multiplier
  ,                                       !- Number of Vertices
  28.7, 43.2, 2.3,                        !- X,Y,Z Vertex 1 {m}
  28.7, 43.2, 0.2,                        !- X,Y,Z Vertex 2 {m}
  27.9, 43.2, 0.2,                        !- X,Y,Z Vertex 3 {m}
  27.9, 43.2, 2.3;                        !- X,Y,Z Vertex 4 {m}

BuildingSurface:Detailed,
  Room_1416_dea82892..Face3,              !- Name
  Wall,                                   !- Surface Type
  OpaqueConstruction_47cf3687,            !- Construction Name
  Room_1416_dea82892,                     !- Zone Name
  Room_1416_dea82892_Space,               !- Space Name
  Outdoors,                               !- Outside Boundary Condition
  ,                                       !- Outside Boundary Condition Object
  SunExposed,                             !- Sun Exposure
  WindExposed,                            !- Wind Exposure
  ,                                       !- View Factor to Ground
  ,                                       !- Number of Vertices
  14.4, 28.8, 4.5,                        !- X,Y,Z Vertex 1 {m}
  14.4, 28.8, 0,                          !- X,Y,Z Vertex 2 {m}
  36, 28.8, 0,                            !- X,Y,Z Vertex 3 {m}
  36, 28.8, 4.5;                          !- X,Y,Z Vertex 4 {m}

BuildingSurface:Detailed,
  Room_1416_dea82892..Face4,              !- Name
  Wall,                                   !- Surface Type
  OpaqueConstruction_47cf3687,            !- Construction Name
  Room_1416_dea82892,                     !- Zone Name
  Room_1416_dea82892_Space,               !- Space Name
  Outdoors,                               !- Outside Boundary Condition
  ,                                       !- Outside Boundary Condition Object
  SunExposed,                             !- Sun Exposure
  WindExposed,                            !- Wind Exposure
  ,                                       !- View Factor to Ground
  ,                                       !- Number of Vertices
  36, 28.8, 4.5,                          !- X,Y,Z Vertex 1 {m}
  36, 28.8, 0,                            !- X,Y,Z Vertex 2 {m}
  36, 43.2, 0,                            !- X,Y,Z Vertex 3 {m}
  36, 43.2, 4.5;                          !- X,Y,Z Vertex 4 {m}

BuildingSurface:Detailed,
  Room_1416_dea82892..Face5,              !- Name
  Wall,                                   !- Surface Type
  OpaqueConstruction_47cf3687,            !- Construction Name
  Room_1416_dea82892,                     !- Zone Name
  Room_1416_dea82892_Space,               !- Space Name
  Outdoors,                               !- Outside Boundary Condition
  ,                                       !- Outside Boundary Condition Object
  SunExposed,                             !- Sun Exposure
  WindExposed,                            !- Wind Exposure
  ,                                       !- View Factor to Ground
  ,                                       !- Number of Vertices
  14.4, 43.2, 4.5,                        !- X,Y,Z Vertex 1 {m}
  14.4, 43.2, 0,                          !- X,Y,Z Vertex 2 {m}
  14.4, 28.8, 0,                          !- X,Y,Z Vertex 3 {m}
  14.4, 28.8, 4.5;                        !- X,Y,Z Vertex 4 {m}

ZoneControl:Thermostat,
  Room_1416_dea82892 Thermostat,          !- Name
  Room_1416_dea82892,                     !- Zone or ZoneList Name
  Room_1416_dea82892 Thermostat Schedule, !- Control Type Schedule Name
  ThermostatSetpoint:DualSetpoint,        !- Control 1 Object Type
  Setpoint_2eba0a66 7,                    !- Control 1 Name
  ,                                       !- Control 2 Object Type
  ,                                       !- Control 2 Name
  ,                                       !- Control 3 Object Type
  ,                                       !- Control 3 Name
  ,                                       !- Control 4 Object Type
  ,                                       !- Control 4 Name
  0;                                      !- Temperature Difference Between Cutout And Setpoint {deltaC}

Schedule:Compact,
  Room_1416_dea82892 Thermostat Schedule, !- Name
  Room_1416_dea82892 Thermostat Schedule Type Limits, !- Schedule Type Limits Name
  Through: 12/31,                         !- Field 1
  For: AllDays,                           !- Field 2
  Until: 24:00,                           !- Field 3
  4;                                      !- Field 4

ScheduleTypeLimits,
  Room_1416_dea82892 Thermostat Schedule Type Limits, !- Name
  0,                                      !- Lower Limit Value {BasedOnField A3}
  4,                                      !- Upper Limit Value {BasedOnField A3}
  DISCRETE;                               !- Numeric Type

ThermostatSetpoint:DualSetpoint,
  Setpoint_2eba0a66 7,                    !- Name
  ConstantSchedule_3ec00e82,              !- Heating Setpoint Temperature Schedule Name
  ConstantSchedule_b6307482;              !- Cooling Setpoint Temperature Schedule Name

ZoneHVAC:EquipmentConnections,
  Room_1416_dea82892,                     !- Zone Name
  Room_1416_dea82892 Equipment List,      !- Zone Conditioning Equipment List Name
  Room_1416_dea82892 Inlet Node List,     !- Zone Air Inlet Node or NodeList Name
  Room_1416_dea82892 Exhaust Node List,   !- Zone Air Exhaust Node or NodeList Name
  Node 8;                                 !- Zone Air Node Name

NodeList,
  Room_1416_dea82892 Inlet Node List,     !- Name
  Node 33;                                !- Node Name 1

NodeList,
  Room_1416_dea82892 Exhaust Node List,   !- Name
  Node 32;                                !- Node Name 1

ZoneHVAC:IdealLoadsAirSystem,
  Room_1416_dea82892 Ideal Loads Air System, !- Name
  ,                                       !- Availability Schedule Name
  Node 33,                                !- Zone Supply Air Node Name
  Node 32,                                !- Zone Exhaust Air Node Name
  ,                                       !- System Inlet Air Node Name
  50,                                     !- Maximum Heating Supply Air Temperature {C}
  13,                                     !- Minimum Cooling Supply Air Temperature {C}
  ,                                       !- Maximum Heating Supply Air Humidity Ratio {kgWater/kgDryAir}
  ,                                       !- Minimum Cooling Supply Air Humidity Ratio {kgWater/kgDryAir}
  LimitCapacity,                          !- Heating Limit
  ,                                       !- Maximum Heating Air Flow Rate {m3/s}
  Autosize,                               !- Maximum Sensible Heating Capacity {W}
  LimitFlowRateAndCapacity,               !- Cooling Limit
  Autosize,                               !- Maximum Cooling Air Flow Rate {m3/s}
  Autosize,                               !- Maximum Total Cooling Capacity {W}
  WeeklySchedule_2856ceac,                !- Heating Availability Schedule Name
  WeeklySchedule_2856ceac,                !- Cooling Availability Schedule Name
  None,                                   !- Dehumidification Control Type
  ,                                       !- Cooling Sensible Heat Ratio {dimensionless}
  ,                                       !- Humidification Control Type
  Ventilation_b96face6,                   !- Design Specification Outdoor Air Object Name
  ,                                       !- Outdoor Air Inlet Node Name
  None,                                   !- Demand Controlled Ventilation Type
  DifferentialDryBulb,                    !- Outdoor Air Economizer Type
  ,                                       !- Heat Recovery Type
  0,                                      !- Sensible Heat Recovery Effectiveness {dimensionless}
  0;                                      !- Latent Heat Recovery Effectiveness {dimensionless}

ZoneHVAC:EquipmentList,
  Room_1416_dea82892 Equipment List,      !- Name
  SequentialLoad,                         !- Load Distribution Scheme
  ZoneHVAC:IdealLoadsAirSystem,           !- Zone Equipment Object Type 1
  Room_1416_dea82892 Ideal Loads Air System, !- Zone Equipment Name 1
  1,                                      !- Zone Equipment Cooling Sequence 1
  1,                                      !- Zone Equipment Heating or No-Load Sequence 1
  ,                                       !- Zone Equipment Sequential Cooling Fraction Schedule Name 1
  ;                                       !- Zone Equipment Sequential Heating Fraction Schedule Name 1

Sizing:Zone,
  Room_1416_dea82892,                     !- Zone or ZoneList Name
  SupplyAirTemperature,                   !- Zone Cooling Design Supply Air Temperature Input Method
  14,                                     !- Zone Cooling Design Supply Air Temperature {C}
  11.11,                                  !- Zone Cooling Design Supply Air Temperature Difference {deltaC}
  SupplyAirTemperature,                   !- Zone Heating Design Supply Air Temperature Input Method
  40,                                     !- Zone Heating Design Supply Air Temperature {C}
  11.11,                                  !- Zone Heating Design Supply Air Temperature Difference {deltaC}
  0.0085,                                 !- Zone Cooling Design Supply Air Humidity Ratio {kgWater/kgDryAir}
  0.008,                                  !- Zone Heating Design Supply Air Humidity Ratio {kgWater/kgDryAir}
  Room_1416_dea82892 DSOA Space List,     !- Design Specification Outdoor Air Object Name
  ,                                       !- Zone Heating Sizing Factor
  ,                                       !- Zone Cooling Sizing Factor
  DesignDay,                              !- Cooling Design Air Flow Method
  0,                                      !- Cooling Design Air Flow Rate {m3/s}
  0.000762,                               !- Cooling Minimum Air Flow per Zone Floor Area {m3/s-m2}
  0,                                      !- Cooling Minimum Air Flow {m3/s}
  0,                                      !- Cooling Minimum Air Flow Fraction
  DesignDay,                              !- Heating Design Air Flow Method
  0,                                      !- Heating Design Air Flow Rate {m3/s}
  0.002032,                               !- Heating Maximum Air Flow per Zone Floor Area {m3/s-m2}
  0.1415762,                              !- Heating Maximum Air Flow {m3/s}
  0.3,                                    !- Heating Maximum Air Flow Fraction
  ,                                       !- Design Specification Zone Air Distribution Object Name
  No,                                     !- Account for Dedicated Outdoor Air System
  ,                                       !- Dedicated Outdoor Air System Control Strategy
  ,                                       !- Dedicated Outdoor Air Low Setpoint Temperature for Design {C}
  ,                                       !- Dedicated Outdoor Air High Setpoint Temperature for Design {C}
  Sensible Load Only No Latent Load,      !- Zone Load Sizing Method
  HumidityRatioDifference,                !- Zone Latent Cooling Design Supply Air Humidity Ratio Input Method
  ,                                       !- Zone Dehumidification Design Supply Air Humidity Ratio {kgWater/kgDryAir}
  0.005,                                  !- Zone Cooling Design Supply Air Humidity Ratio Difference {kgWater/kgDryAir}
  HumidityRatioDifference,                !- Zone Latent Heating Design Supply Air Humidity Ratio Input Method
  ,                                       !- Zone Humidification Design Supply Air Humidity Ratio {kgWater/kgDryAir}
  0.005;                                  !- Zone Humidification Design Supply Air Humidity Ratio Difference {kgWater/kgDryAir}

DesignSpecification:OutdoorAir:SpaceList,
  Room_1416_dea82892 DSOA Space List,     !- Name
  Room_1416_dea82892_Space,               !- Space Name 1
  Ventilation_b96face6;                   !- Space Design Specification Outdoor Air Object Name 1

Zone,
  Room_1417_dd7012e5,                     !- Name
  ,                                       !- Direction of Relative North {deg}
  0,                                      !- X Origin {m}
  0,                                      !- Y Origin {m}
  0,                                      !- Z Origin {m}
  ,                                       !- Type
  1,                                      !- Multiplier
  4.5,                                    !- Ceiling Height {m}
  1399.68,                                !- Volume {m3}
  ,                                       !- Floor Area {m2}
  ,                                       !- Zone Inside Convection Algorithm
  ,                                       !- Zone Outside Convection Algorithm
  Yes;                                    !- Part of Total Floor Area

Space,
  Room_1417_dd7012e5_Space,               !- Name
  Room_1417_dd7012e5,                     !- Zone Name
  ,                                       !- Ceiling Height {m}
  ,                                       !- Volume {m3}
  ,                                       !- Floor Area {m2}
  ProgramType_f9e2e425;                   !- Space Type

BuildingSurface:Detailed,
  Room_1417_dd7012e5..Face0,              !- Name
  Floor,                                  !- Surface Type
  OpaqueConstruction_47cf3687,            !- Construction Name
  Room_1417_dd7012e5,                     !- Zone Name
  Room_1417_dd7012e5_Space,               !- Space Name
  Ground,                                 !- Outside Boundary Condition
  ,                                       !- Outside Boundary Condition Object
  NoSun,                                  !- Sun Exposure
  NoWind,                                 !- Wind Exposure
  ,                                       !- View Factor to Ground
  ,                                       !- Number of Vertices
  93.6, 43.2, 0,                          !- X,Y,Z Vertex 1 {m}
  93.6, 28.8, 0,                          !- X,Y,Z Vertex 2 {m}
  72, 28.8, 0,                            !- X,Y,Z Vertex 3 {m}
  72, 43.2, 0;                            !- X,Y,Z Vertex 4 {m}

BuildingSurface:Detailed,
  Room_1417_dd7012e5..Face1,              !- Name
  Ceiling,                                !- Surface Type
  OpaqueConstruction_47cf3687,            !- Construction Name
  Room_1417_dd7012e5,                     !- Zone Name
  Room_1417_dd7012e5_Space,               !- Space Name
  Surface,                                !- Outside Boundary Condition
  Room_1419_3cec4092..Face0,              !- Outside Boundary Condition Object
  NoSun,                                  !- Sun Exposure
  NoWind,                                 !- Wind Exposure
  ,                                       !- View Factor to Ground
  ,                                       !- Number of Vertices
  72, 43.2, 4.5,                          !- X,Y,Z Vertex 1 {m}
  72, 28.8, 4.5,                          !- X,Y,Z Vertex 2 {m}
  93.6, 28.8, 4.5,                        !- X,Y,Z Vertex 3 {m}
  93.6, 43.2, 4.5;                        !- X,Y,Z Vertex 4 {m}

BuildingSurface:Detailed,
  Room_1417_dd7012e5..Face2,              !- Name
  Wall,                                   !- Surface Type
  OpaqueConstruction_47cf3687,            !- Construction Name
  Room_1417_dd7012e5,                     !- Zone Name
  Room_1417_dd7012e5_Space,               !- Space Name
  Outdoors,                               !- Outside Boundary Condition
  ,                                       !- Outside Boundary Condition Object
  SunExposed,                             !- Sun Exposure
  WindExposed,                            !- Wind Exposure
  ,                                       !- View Factor to Ground
  ,                                       !- Number of Vertices
  93.6, 43.2, 4.5,                        !- X,Y,Z Vertex 1 {m}
  93.6, 43.2, 0,                          !- X,Y,Z Vertex 2 {m}
  86.4, 43.2, 0,                          !- X,Y,Z Vertex 3 {m}
  86.4, 43.2, 4.5;                        !- X,Y,Z Vertex 4 {m}

BuildingSurface:Detailed,
  Room_1417_dd7012e5..Face3,              !- Name
  Wall,                                   !- Surface Type
  OpaqueConstruction_47cf3687,            !- Construction Name
  Room_1417_dd7012e5,                     !- Zone Name
  Room_1417_dd7012e5_Space,               !- Space Name
  Outdoors,                               !- Outside Boundary Condition
  ,                                       !- Outside Boundary Condition Object
  SunExposed,                             !- Sun Exposure
  WindExposed,                            !- Wind Exposure
  ,                                       !- View Factor to Ground
  ,                                       !- Number of Vertices
  79.2, 28.8, 4.5,                        !- X,Y,Z Vertex 1 {m}
  79.2, 28.8, 0,                          !- X,Y,Z Vertex 2 {m}
  93.6, 28.8, 0,                          !- X,Y,Z Vertex 3 {m}
  93.6, 28.8, 4.5;                        !- X,Y,Z Vertex 4 {m}

BuildingSurface:Detailed,
  Room_1417_dd7012e5..Face4,              !- Name
  Wall,                                   !- Surface Type
  OpaqueConstruction_47cf3687,            !- Construction Name
  Room_1417_dd7012e5,                     !- Zone Name
  Room_1417_dd7012e5_Space,               !- Space Name
  Surface,                                !- Outside Boundary Condition
  Room_1410_d508b878..Face18,             !- Outside Boundary Condition Object
  NoSun,                                  !- Sun Exposure
  NoWind,                                 !- Wind Exposure
  ,                                       !- View Factor to Ground
  ,                                       !- Number of Vertices
  86.4, 43.2, 4.5,                        !- X,Y,Z Vertex 1 {m}
  86.4, 43.2, 0,                          !- X,Y,Z Vertex 2 {m}
  72, 43.2, 0,                            !- X,Y,Z Vertex 3 {m}
  72, 43.2, 4.5;                          !- X,Y,Z Vertex 4 {m}

FenestrationSurface:Detailed,
  Aperture_2ed32936,                      !- Name
  Window,                                 !- Surface Type
  WindowConstruction_1dfe9b5d,            !- Construction Name
  Room_1417_dd7012e5..Face4,              !- Building Surface Name
  Ajd_Aperture_2ed32936,                  !- Outside Boundary Condition Object
  ,                                       !- View Factor to Ground
  ,                                       !- Frame and Divider Name
  ,                                       !- Multiplier
  ,                                       !- Number of Vertices
  80.2, 43.2, 2.3,                        !- X,Y,Z Vertex 1 {m}
  80.2, 43.2, 0.2,                        !- X,Y,Z Vertex 2 {m}
  79.3, 43.2, 0.2,                        !- X,Y,Z Vertex 3 {m}
  79.3, 43.2, 2.3;                        !- X,Y,Z Vertex 4 {m}

FenestrationSurface:Detailed,
  Aperture_80d65499,                      !- Name
  Window,                                 !- Surface Type
  WindowConstruction_1dfe9b5d,            !- Construction Name
  Room_1417_dd7012e5..Face4,              !- Building Surface Name
  Ajd_Aperture_80d65499,                  !- Outside Boundary Condition Object
  ,                                       !- View Factor to Ground
  ,                                       !- Frame and Divider Name
  ,                                       !- Multiplier
  ,                                       !- Number of Vertices
  79.1, 43.2, 2.3,                        !- X,Y,Z Vertex 1 {m}
  79.1, 43.2, 0.2,                        !- X,Y,Z Vertex 2 {m}
  78.3, 43.2, 0.2,                        !- X,Y,Z Vertex 3 {m}
  78.3, 43.2, 2.3;                        !- X,Y,Z Vertex 4 {m}

FenestrationSurface:Detailed,
  Aperture_867a1a32,                      !- Name
  Window,                                 !- Surface Type
  WindowConstruction_1dfe9b5d,            !- Construction Name
  Room_1417_dd7012e5..Face4,              !- Building Surface Name
  Ajd_Aperture_867a1a32,                  !- Outside Boundary Condition Object
  ,                                       !- View Factor to Ground
  ,                                       !- Frame and Divider Name
  ,                                       !- Multiplier
  ,                                       !- Number of Vertices
  86.3, 43.2, 2.3,                        !- X,Y,Z Vertex 1 {m}
  86.3, 43.2, 0.2,                        !- X,Y,Z Vertex 2 {m}
  85.5, 43.2, 0.2,                        !- X,Y,Z Vertex 3 {m}
  85.5, 43.2, 2.3;                        !- X,Y,Z Vertex 4 {m}

FenestrationSurface:Detailed,
  Aperture_e776746b,                      !- Name
  Window,                                 !- Surface Type
  WindowConstruction_1dfe9b5d,            !- Construction Name
  Room_1417_dd7012e5..Face4,              !- Building Surface Name
  Ajd_Aperture_e776746b,                  !- Outside Boundary Condition Object
  ,                                       !- View Factor to Ground
  ,                                       !- Frame and Divider Name
  ,                                       !- Multiplier
  ,                                       !- Number of Vertices
  73, 43.2, 2.3,                          !- X,Y,Z Vertex 1 {m}
  73, 43.2, 0.2,                          !- X,Y,Z Vertex 2 {m}
  72.1, 43.2, 0.2,                        !- X,Y,Z Vertex 3 {m}
  72.1, 43.2, 2.3;                        !- X,Y,Z Vertex 4 {m}

BuildingSurface:Detailed,
  Room_1417_dd7012e5..Face5,              !- Name
  Wall,                                   !- Surface Type
  OpaqueConstruction_47cf3687,            !- Construction Name
  Room_1417_dd7012e5,                     !- Zone Name
  Room_1417_dd7012e5_Space,               !- Space Name
  Surface,                                !- Outside Boundary Condition
  Room_1410_d508b878..Face19,             !- Outside Boundary Condition Object
  NoSun,                                  !- Sun Exposure
  NoWind,                                 !- Wind Exposure
  ,                                       !- View Factor to Ground
  ,                                       !- Number of Vertices
  72, 43.2, 4.5,                          !- X,Y,Z Vertex 1 {m}
  72, 43.2, 0,                            !- X,Y,Z Vertex 2 {m}
  72, 28.8, 0,                            !- X,Y,Z Vertex 3 {m}
  72, 28.8, 4.5;                          !- X,Y,Z Vertex 4 {m}

FenestrationSurface:Detailed,
  Aperture_80c5a8fc,                      !- Name
  Window,                                 !- Surface Type
  WindowConstruction_1dfe9b5d,            !- Construction Name
  Room_1417_dd7012e5..Face5,              !- Building Surface Name
  Ajd_Aperture_80c5a8fc,                  !- Outside Boundary Condition Object
  ,                                       !- View Factor to Ground
  ,                                       !- Frame and Divider Name
  ,                                       !- Multiplier
  ,                                       !- Number of Vertices
  72, 36.9, 2.3,                          !- X,Y,Z Vertex 1 {m}
  72, 36.9, 0.2,                          !- X,Y,Z Vertex 2 {m}
  72, 36.1, 0.2,                          !- X,Y,Z Vertex 3 {m}
  72, 36.1, 2.3;                          !- X,Y,Z Vertex 4 {m}

FenestrationSurface:Detailed,
  Aperture_de19cdf3,                      !- Name
  Window,                                 !- Surface Type
  WindowConstruction_1dfe9b5d,            !- Construction Name
  Room_1417_dd7012e5..Face5,              !- Building Surface Name
  Ajd_Aperture_de19cdf3,                  !- Outside Boundary Condition Object
  ,                                       !- View Factor to Ground
  ,                                       !- Frame and Divider Name
  ,                                       !- Multiplier
  ,                                       !- Number of Vertices
  72, 43.1, 2.3,                          !- X,Y,Z Vertex 1 {m}
  72, 43.1, 0.2,                          !- X,Y,Z Vertex 2 {m}
  72, 42.2, 0.2,                          !- X,Y,Z Vertex 3 {m}
  72, 42.2, 2.3;                          !- X,Y,Z Vertex 4 {m}

FenestrationSurface:Detailed,
  Aperture_e57d7eed,                      !- Name
  Window,                                 !- Surface Type
  WindowConstruction_1dfe9b5d,            !- Construction Name
  Room_1417_dd7012e5..Face5,              !- Building Surface Name
  Ajd_Aperture_e57d7eed,                  !- Outside Boundary Condition Object
  ,                                       !- View Factor to Ground
  ,                                       !- Frame and Divider Name
  ,                                       !- Multiplier
  ,                                       !- Number of Vertices
  72, 35.9, 2.3,                          !- X,Y,Z Vertex 1 {m}
  72, 35.9, 0.2,                          !- X,Y,Z Vertex 2 {m}
  72, 35, 0.2,                            !- X,Y,Z Vertex 3 {m}
  72, 35, 2.3;                            !- X,Y,Z Vertex 4 {m}

FenestrationSurface:Detailed,
  Aperture_e8195b78,                      !- Name
  Window,                                 !- Surface Type
  WindowConstruction_1dfe9b5d,            !- Construction Name
  Room_1417_dd7012e5..Face5,              !- Building Surface Name
  Ajd_Aperture_e8195b78,                  !- Outside Boundary Condition Object
  ,                                       !- View Factor to Ground
  ,                                       !- Frame and Divider Name
  ,                                       !- Multiplier
  ,                                       !- Number of Vertices
  72, 29.7, 2.3,                          !- X,Y,Z Vertex 1 {m}
  72, 29.7, 0.2,                          !- X,Y,Z Vertex 2 {m}
  72, 28.9, 0.2,                          !- X,Y,Z Vertex 3 {m}
  72, 28.9, 2.3;                          !- X,Y,Z Vertex 4 {m}

BuildingSurface:Detailed,
  Room_1417_dd7012e5..Face6,              !- Name
  Wall,                                   !- Surface Type
  OpaqueConstruction_47cf3687,            !- Construction Name
  Room_1417_dd7012e5,                     !- Zone Name
  Room_1417_dd7012e5_Space,               !- Space Name
  Outdoors,                               !- Outside Boundary Condition
  ,                                       !- Outside Boundary Condition Object
  SunExposed,                             !- Sun Exposure
  WindExposed,                            !- Wind Exposure
  ,                                       !- View Factor to Ground
  ,                                       !- Number of Vertices
  93.6, 28.8, 4.5,                        !- X,Y,Z Vertex 1 {m}
  93.6, 28.8, 0,                          !- X,Y,Z Vertex 2 {m}
  93.6, 43.2, 0,                          !- X,Y,Z Vertex 3 {m}
  93.6, 43.2, 4.5;                        !- X,Y,Z Vertex 4 {m}

BuildingSurface:Detailed,
  Room_1417_dd7012e5..Face7,              !- Name
  Wall,                                   !- Surface Type
  OpaqueConstruction_47cf3687,            !- Construction Name
  Room_1417_dd7012e5,                     !- Zone Name
  Room_1417_dd7012e5_Space,               !- Space Name
  Surface,                                !- Outside Boundary Condition
  Room_1410_d508b878..Face21,             !- Outside Boundary Condition Object
  NoSun,                                  !- Sun Exposure
  NoWind,                                 !- Wind Exposure
  ,                                       !- View Factor to Ground
  ,                                       !- Number of Vertices
  72, 28.8, 4.5,                          !- X,Y,Z Vertex 1 {m}
  72, 28.8, 0,                            !- X,Y,Z Vertex 2 {m}
  79.2, 28.8, 0,                          !- X,Y,Z Vertex 3 {m}
  79.2, 28.8, 4.5;                        !- X,Y,Z Vertex 4 {m}

FenestrationSurface:Detailed,
  Aperture_70d8a017,                      !- Name
  Window,                                 !- Surface Type
  WindowConstruction_1dfe9b5d,            !- Construction Name
  Room_1417_dd7012e5..Face7,              !- Building Surface Name
  Ajd_Aperture_70d8a017,                  !- Outside Boundary Condition Object
  ,                                       !- View Factor to Ground
  ,                                       !- Frame and Divider Name
  ,                                       !- Multiplier
  ,                                       !- Number of Vertices
  78.3, 28.8, 2.3,                        !- X,Y,Z Vertex 1 {m}
  78.3, 28.8, 0.2,                        !- X,Y,Z Vertex 2 {m}
  79.1, 28.8, 0.2,                        !- X,Y,Z Vertex 3 {m}
  79.1, 28.8, 2.3;                        !- X,Y,Z Vertex 4 {m}

FenestrationSurface:Detailed,
  Aperture_ac685066,                      !- Name
  Window,                                 !- Surface Type
  WindowConstruction_1dfe9b5d,            !- Construction Name
  Room_1417_dd7012e5..Face7,              !- Building Surface Name
  Ajd_Aperture_ac685066,                  !- Outside Boundary Condition Object
  ,                                       !- View Factor to Ground
  ,                                       !- Frame and Divider Name
  ,                                       !- Multiplier
  ,                                       !- Number of Vertices
  72.1, 28.8, 2.3,                        !- X,Y,Z Vertex 1 {m}
  72.1, 28.8, 0.2,                        !- X,Y,Z Vertex 2 {m}
  73, 28.8, 0.2,                          !- X,Y,Z Vertex 3 {m}
  73, 28.8, 2.3;                          !- X,Y,Z Vertex 4 {m}

ZoneControl:Thermostat,
  Room_1417_dd7012e5 Thermostat,          !- Name
  Room_1417_dd7012e5,                     !- Zone or ZoneList Name
  Room_1417_dd7012e5 Thermostat Schedule, !- Control Type Schedule Name
  ThermostatSetpoint:DualSetpoint,        !- Control 1 Object Type
  Setpoint_2eba0a66 8,                    !- Control 1 Name
  ,                                       !- Control 2 Object Type
  ,                                       !- Control 2 Name
  ,                                       !- Control 3 Object Type
  ,                                       !- Control 3 Name
  ,                                       !- Control 4 Object Type
  ,                                       !- Control 4 Name
  0;                                      !- Temperature Difference Between Cutout And Setpoint {deltaC}

Schedule:Compact,
  Room_1417_dd7012e5 Thermostat Schedule, !- Name
  Room_1417_dd7012e5 Thermostat Schedule Type Limits, !- Schedule Type Limits Name
  Through: 12/31,                         !- Field 1
  For: AllDays,                           !- Field 2
  Until: 24:00,                           !- Field 3
  4;                                      !- Field 4

ScheduleTypeLimits,
  Room_1417_dd7012e5 Thermostat Schedule Type Limits, !- Name
  0,                                      !- Lower Limit Value {BasedOnField A3}
  4,                                      !- Upper Limit Value {BasedOnField A3}
  DISCRETE;                               !- Numeric Type

ThermostatSetpoint:DualSetpoint,
  Setpoint_2eba0a66 8,                    !- Name
  ConstantSchedule_3ec00e82,              !- Heating Setpoint Temperature Schedule Name
  ConstantSchedule_b6307482;              !- Cooling Setpoint Temperature Schedule Name

ZoneHVAC:EquipmentConnections,
  Room_1417_dd7012e5,                     !- Zone Name
  Room_1417_dd7012e5 Equipment List,      !- Zone Conditioning Equipment List Name
  Room_1417_dd7012e5 Inlet Node List,     !- Zone Air Inlet Node or NodeList Name
  Room_1417_dd7012e5 Exhaust Node List,   !- Zone Air Exhaust Node or NodeList Name
  Node 9;                                 !- Zone Air Node Name

NodeList,
  Room_1417_dd7012e5 Inlet Node List,     !- Name
  Node 35;                                !- Node Name 1

NodeList,
  Room_1417_dd7012e5 Exhaust Node List,   !- Name
  Node 34;                                !- Node Name 1

ZoneHVAC:IdealLoadsAirSystem,
  Room_1417_dd7012e5 Ideal Loads Air System, !- Name
  ,                                       !- Availability Schedule Name
  Node 35,                                !- Zone Supply Air Node Name
  Node 34,                                !- Zone Exhaust Air Node Name
  ,                                       !- System Inlet Air Node Name
  50,                                     !- Maximum Heating Supply Air Temperature {C}
  13,                                     !- Minimum Cooling Supply Air Temperature {C}
  ,                                       !- Maximum Heating Supply Air Humidity Ratio {kgWater/kgDryAir}
  ,                                       !- Minimum Cooling Supply Air Humidity Ratio {kgWater/kgDryAir}
  LimitCapacity,                          !- Heating Limit
  ,                                       !- Maximum Heating Air Flow Rate {m3/s}
  Autosize,                               !- Maximum Sensible Heating Capacity {W}
  LimitFlowRateAndCapacity,               !- Cooling Limit
  Autosize,                               !- Maximum Cooling Air Flow Rate {m3/s}
  Autosize,                               !- Maximum Total Cooling Capacity {W}
  WeeklySchedule_2856ceac,                !- Heating Availability Schedule Name
  WeeklySchedule_2856ceac,                !- Cooling Availability Schedule Name
  None,                                   !- Dehumidification Control Type
  ,                                       !- Cooling Sensible Heat Ratio {dimensionless}
  ,                                       !- Humidification Control Type
  Ventilation_b96face6,                   !- Design Specification Outdoor Air Object Name
  ,                                       !- Outdoor Air Inlet Node Name
  None,                                   !- Demand Controlled Ventilation Type
  DifferentialDryBulb,                    !- Outdoor Air Economizer Type
  ,                                       !- Heat Recovery Type
  0,                                      !- Sensible Heat Recovery Effectiveness {dimensionless}
  0;                                      !- Latent Heat Recovery Effectiveness {dimensionless}

ZoneHVAC:EquipmentList,
  Room_1417_dd7012e5 Equipment List,      !- Name
  SequentialLoad,                         !- Load Distribution Scheme
  ZoneHVAC:IdealLoadsAirSystem,           !- Zone Equipment Object Type 1
  Room_1417_dd7012e5 Ideal Loads Air System, !- Zone Equipment Name 1
  1,                                      !- Zone Equipment Cooling Sequence 1
  1,                                      !- Zone Equipment Heating or No-Load Sequence 1
  ,                                       !- Zone Equipment Sequential Cooling Fraction Schedule Name 1
  ;                                       !- Zone Equipment Sequential Heating Fraction Schedule Name 1

Sizing:Zone,
  Room_1417_dd7012e5,                     !- Zone or ZoneList Name
  SupplyAirTemperature,                   !- Zone Cooling Design Supply Air Temperature Input Method
  14,                                     !- Zone Cooling Design Supply Air Temperature {C}
  11.11,                                  !- Zone Cooling Design Supply Air Temperature Difference {deltaC}
  SupplyAirTemperature,                   !- Zone Heating Design Supply Air Temperature Input Method
  40,                                     !- Zone Heating Design Supply Air Temperature {C}
  11.11,                                  !- Zone Heating Design Supply Air Temperature Difference {deltaC}
  0.0085,                                 !- Zone Cooling Design Supply Air Humidity Ratio {kgWater/kgDryAir}
  0.008,                                  !- Zone Heating Design Supply Air Humidity Ratio {kgWater/kgDryAir}
  Room_1417_dd7012e5 DSOA Space List,     !- Design Specification Outdoor Air Object Name
  ,                                       !- Zone Heating Sizing Factor
  ,                                       !- Zone Cooling Sizing Factor
  DesignDay,                              !- Cooling Design Air Flow Method
  0,                                      !- Cooling Design Air Flow Rate {m3/s}
  0.000762,                               !- Cooling Minimum Air Flow per Zone Floor Area {m3/s-m2}
  0,                                      !- Cooling Minimum Air Flow {m3/s}
  0,                                      !- Cooling Minimum Air Flow Fraction
  DesignDay,                              !- Heating Design Air Flow Method
  0,                                      !- Heating Design Air Flow Rate {m3/s}
  0.002032,                               !- Heating Maximum Air Flow per Zone Floor Area {m3/s-m2}
  0.1415762,                              !- Heating Maximum Air Flow {m3/s}
  0.3,                                    !- Heating Maximum Air Flow Fraction
  ,                                       !- Design Specification Zone Air Distribution Object Name
  No,                                     !- Account for Dedicated Outdoor Air System
  ,                                       !- Dedicated Outdoor Air System Control Strategy
  ,                                       !- Dedicated Outdoor Air Low Setpoint Temperature for Design {C}
  ,                                       !- Dedicated Outdoor Air High Setpoint Temperature for Design {C}
  Sensible Load Only No Latent Load,      !- Zone Load Sizing Method
  HumidityRatioDifference,                !- Zone Latent Cooling Design Supply Air Humidity Ratio Input Method
  ,                                       !- Zone Dehumidification Design Supply Air Humidity Ratio {kgWater/kgDryAir}
  0.005,                                  !- Zone Cooling Design Supply Air Humidity Ratio Difference {kgWater/kgDryAir}
  HumidityRatioDifference,                !- Zone Latent Heating Design Supply Air Humidity Ratio Input Method
  ,                                       !- Zone Humidification Design Supply Air Humidity Ratio {kgWater/kgDryAir}
  0.005;                                  !- Zone Humidification Design Supply Air Humidity Ratio Difference {kgWater/kgDryAir}

DesignSpecification:OutdoorAir:SpaceList,
  Room_1417_dd7012e5 DSOA Space List,     !- Name
  Room_1417_dd7012e5_Space,               !- Space Name 1
  Ventilation_b96face6;                   !- Space Design Specification Outdoor Air Object Name 1

Zone,
  Room_1418_b43ea9f0,                     !- Name
  ,                                       !- Direction of Relative North {deg}
  0,                                      !- X Origin {m}
  0,                                      !- Y Origin {m}
  0,                                      !- Z Origin {m}
  ,                                       !- Type
  1,                                      !- Multiplier
  4.5,                                    !- Ceiling Height {m}
  1399.68,                                !- Volume {m3}
  ,                                       !- Floor Area {m2}
  ,                                       !- Zone Inside Convection Algorithm
  ,                                       !- Zone Outside Convection Algorithm
  Yes;                                    !- Part of Total Floor Area

Space,
  Room_1418_b43ea9f0_Space,               !- Name
  Room_1418_b43ea9f0,                     !- Zone Name
  ,                                       !- Ceiling Height {m}
  ,                                       !- Volume {m3}
  ,                                       !- Floor Area {m2}
  ProgramType_f9e2e425;                   !- Space Type

BuildingSurface:Detailed,
  Room_1418_b43ea9f0..Face0,              !- Name
  Floor,                                  !- Surface Type
  OpaqueConstruction_47cf3687,            !- Construction Name
  Room_1418_b43ea9f0,                     !- Zone Name
  Room_1418_b43ea9f0_Space,               !- Space Name
  Surface,                                !- Outside Boundary Condition
  Room_1416_dea82892..Face1,              !- Outside Boundary Condition Object
  NoSun,                                  !- Sun Exposure
  NoWind,                                 !- Wind Exposure
  ,                                       !- View Factor to Ground
  ,                                       !- Number of Vertices
  36, 43.2, 4.5,                          !- X,Y,Z Vertex 1 {m}
  36, 28.8, 4.5,                          !- X,Y,Z Vertex 2 {m}
  14.4, 28.8, 4.5,                        !- X,Y,Z Vertex 3 {m}
  14.4, 43.2, 4.5;                        !- X,Y,Z Vertex 4 {m}

BuildingSurface:Detailed,
  Room_1418_b43ea9f0..Face1,              !- Name
  Ceiling,                                !- Surface Type
  OpaqueConstruction_47cf3687,            !- Construction Name
  Room_1418_b43ea9f0,                     !- Zone Name
  Room_1418_b43ea9f0_Space,               !- Space Name
  Surface,                                !- Outside Boundary Condition
  Room_1420_b9536d43..Face0,              !- Outside Boundary Condition Object
  NoSun,                                  !- Sun Exposure
  NoWind,                                 !- Wind Exposure
  ,                                       !- View Factor to Ground
  ,                                       !- Number of Vertices
  14.4, 43.2, 9,                          !- X,Y,Z Vertex 1 {m}
  14.4, 28.8, 9,                          !- X,Y,Z Vertex 2 {m}
  36, 28.8, 9,                            !- X,Y,Z Vertex 3 {m}
  36, 43.2, 9;                            !- X,Y,Z Vertex 4 {m}

BuildingSurface:Detailed,
  Room_1418_b43ea9f0..Face2,              !- Name
  Wall,                                   !- Surface Type
  OpaqueConstruction_47cf3687,            !- Construction Name
  Room_1418_b43ea9f0,                     !- Zone Name
  Room_1418_b43ea9f0_Space,               !- Space Name
  Surface,                                !- Outside Boundary Condition
  Room_1411_b0c8040d..Face7,              !- Outside Boundary Condition Object
  NoSun,                                  !- Sun Exposure
  NoWind,                                 !- Wind Exposure
  ,                                       !- View Factor to Ground
  ,                                       !- Number of Vertices
  36, 43.2, 9,                            !- X,Y,Z Vertex 1 {m}
  36, 43.2, 4.5,                          !- X,Y,Z Vertex 2 {m}
  14.4, 43.2, 4.5,                        !- X,Y,Z Vertex 3 {m}
  14.4, 43.2, 9;                          !- X,Y,Z Vertex 4 {m}

FenestrationSurface:Detailed,
  Ajd_Aperture_0970beeb,                  !- Name
  Window,                                 !- Surface Type
  WindowConstruction_1dfe9b5d,            !- Construction Name
  Room_1418_b43ea9f0..Face2,              !- Building Surface Name
  Aperture_0970beeb,                      !- Outside Boundary Condition Object
  ,                                       !- View Factor to Ground
  ,                                       !- Frame and Divider Name
  ,                                       !- Multiplier
  ,                                       !- Number of Vertices
  29.8, 43.2, 6.8,                        !- X,Y,Z Vertex 1 {m}
  29.8, 43.2, 4.7,                        !- X,Y,Z Vertex 2 {m}
  28.9, 43.2, 4.7,                        !- X,Y,Z Vertex 3 {m}
  28.9, 43.2, 6.8;                        !- X,Y,Z Vertex 4 {m}

FenestrationSurface:Detailed,
  Ajd_Aperture_64622235,                  !- Name
  Window,                                 !- Surface Type
  WindowConstruction_1dfe9b5d,            !- Construction Name
  Room_1418_b43ea9f0..Face2,              !- Building Surface Name
  Aperture_64622235,                      !- Outside Boundary Condition Object
  ,                                       !- View Factor to Ground
  ,                                       !- Frame and Divider Name
  ,                                       !- Multiplier
  ,                                       !- Number of Vertices
  22.6, 43.2, 6.8,                        !- X,Y,Z Vertex 1 {m}
  22.6, 43.2, 4.7,                        !- X,Y,Z Vertex 2 {m}
  21.7, 43.2, 4.7,                        !- X,Y,Z Vertex 3 {m}
  21.7, 43.2, 6.8;                        !- X,Y,Z Vertex 4 {m}

FenestrationSurface:Detailed,
  Ajd_Aperture_a3237b01,                  !- Name
  Window,                                 !- Surface Type
  WindowConstruction_1dfe9b5d,            !- Construction Name
  Room_1418_b43ea9f0..Face2,              !- Building Surface Name
  Aperture_a3237b01,                      !- Outside Boundary Condition Object
  ,                                       !- View Factor to Ground
  ,                                       !- Frame and Divider Name
  ,                                       !- Multiplier
  ,                                       !- Number of Vertices
  28.7, 43.2, 6.8,                        !- X,Y,Z Vertex 1 {m}
  28.7, 43.2, 4.7,                        !- X,Y,Z Vertex 2 {m}
  27.9, 43.2, 4.7,                        !- X,Y,Z Vertex 3 {m}
  27.9, 43.2, 6.8;                        !- X,Y,Z Vertex 4 {m}

FenestrationSurface:Detailed,
  Ajd_Aperture_b997b4d8,                  !- Name
  Window,                                 !- Surface Type
  WindowConstruction_1dfe9b5d,            !- Construction Name
  Room_1418_b43ea9f0..Face2,              !- Building Surface Name
  Aperture_b997b4d8,                      !- Outside Boundary Condition Object
  ,                                       !- View Factor to Ground
  ,                                       !- Frame and Divider Name
  ,                                       !- Multiplier
  ,                                       !- Number of Vertices
  35.9, 43.2, 6.8,                        !- X,Y,Z Vertex 1 {m}
  35.9, 43.2, 4.7,                        !- X,Y,Z Vertex 2 {m}
  35.1, 43.2, 4.7,                        !- X,Y,Z Vertex 3 {m}
  35.1, 43.2, 6.8;                        !- X,Y,Z Vertex 4 {m}

FenestrationSurface:Detailed,
  Ajd_Aperture_d49ac95e,                  !- Name
  Window,                                 !- Surface Type
  WindowConstruction_1dfe9b5d,            !- Construction Name
  Room_1418_b43ea9f0..Face2,              !- Building Surface Name
  Aperture_d49ac95e,                      !- Outside Boundary Condition Object
  ,                                       !- View Factor to Ground
  ,                                       !- Frame and Divider Name
  ,                                       !- Multiplier
  ,                                       !- Number of Vertices
  15.4, 43.2, 6.8,                        !- X,Y,Z Vertex 1 {m}
  15.4, 43.2, 4.7,                        !- X,Y,Z Vertex 2 {m}
  14.5, 43.2, 4.7,                        !- X,Y,Z Vertex 3 {m}
  14.5, 43.2, 6.8;                        !- X,Y,Z Vertex 4 {m}

FenestrationSurface:Detailed,
  Ajd_Aperture_f0ee8ce0,                  !- Name
  Window,                                 !- Surface Type
  WindowConstruction_1dfe9b5d,            !- Construction Name
  Room_1418_b43ea9f0..Face2,              !- Building Surface Name
  Aperture_f0ee8ce0,                      !- Outside Boundary Condition Object
  ,                                       !- View Factor to Ground
  ,                                       !- Frame and Divider Name
  ,                                       !- Multiplier
  ,                                       !- Number of Vertices
  21.5, 43.2, 6.8,                        !- X,Y,Z Vertex 1 {m}
  21.5, 43.2, 4.7,                        !- X,Y,Z Vertex 2 {m}
  20.7, 43.2, 4.7,                        !- X,Y,Z Vertex 3 {m}
  20.7, 43.2, 6.8;                        !- X,Y,Z Vertex 4 {m}

BuildingSurface:Detailed,
  Room_1418_b43ea9f0..Face3,              !- Name
  Wall,                                   !- Surface Type
  OpaqueConstruction_47cf3687,            !- Construction Name
  Room_1418_b43ea9f0,                     !- Zone Name
  Room_1418_b43ea9f0_Space,               !- Space Name
  Outdoors,                               !- Outside Boundary Condition
  ,                                       !- Outside Boundary Condition Object
  SunExposed,                             !- Sun Exposure
  WindExposed,                            !- Wind Exposure
  ,                                       !- View Factor to Ground
  ,                                       !- Number of Vertices
  14.4, 28.8, 9,                          !- X,Y,Z Vertex 1 {m}
  14.4, 28.8, 4.5,                        !- X,Y,Z Vertex 2 {m}
  36, 28.8, 4.5,                          !- X,Y,Z Vertex 3 {m}
  36, 28.8, 9;                            !- X,Y,Z Vertex 4 {m}

BuildingSurface:Detailed,
  Room_1418_b43ea9f0..Face4,              !- Name
  Wall,                                   !- Surface Type
  OpaqueConstruction_47cf3687,            !- Construction Name
  Room_1418_b43ea9f0,                     !- Zone Name
  Room_1418_b43ea9f0_Space,               !- Space Name
  Outdoors,                               !- Outside Boundary Condition
  ,                                       !- Outside Boundary Condition Object
  SunExposed,                             !- Sun Exposure
  WindExposed,                            !- Wind Exposure
  ,                                       !- View Factor to Ground
  ,                                       !- Number of Vertices
  14.4, 43.2, 9,                          !- X,Y,Z Vertex 1 {m}
  14.4, 43.2, 4.5,                        !- X,Y,Z Vertex 2 {m}
  14.4, 28.8, 4.5,                        !- X,Y,Z Vertex 3 {m}
  14.4, 28.8, 9;                          !- X,Y,Z Vertex 4 {m}

BuildingSurface:Detailed,
  Room_1418_b43ea9f0..Face5,              !- Name
  Wall,                                   !- Surface Type
  OpaqueConstruction_47cf3687,            !- Construction Name
  Room_1418_b43ea9f0,                     !- Zone Name
  Room_1418_b43ea9f0_Space,               !- Space Name
  Outdoors,                               !- Outside Boundary Condition
  ,                                       !- Outside Boundary Condition Object
  SunExposed,                             !- Sun Exposure
  WindExposed,                            !- Wind Exposure
  ,                                       !- View Factor to Ground
  ,                                       !- Number of Vertices
  36, 28.8, 9,                            !- X,Y,Z Vertex 1 {m}
  36, 28.8, 4.5,                          !- X,Y,Z Vertex 2 {m}
  36, 43.2, 4.5,                          !- X,Y,Z Vertex 3 {m}
  36, 43.2, 9;                            !- X,Y,Z Vertex 4 {m}

ZoneControl:Thermostat,
  Room_1418_b43ea9f0 Thermostat,          !- Name
  Room_1418_b43ea9f0,                     !- Zone or ZoneList Name
  Room_1418_b43ea9f0 Thermostat Schedule, !- Control Type Schedule Name
  ThermostatSetpoint:DualSetpoint,        !- Control 1 Object Type
  Setpoint_2eba0a66 9,                    !- Control 1 Name
  ,                                       !- Control 2 Object Type
  ,                                       !- Control 2 Name
  ,                                       !- Control 3 Object Type
  ,                                       !- Control 3 Name
  ,                                       !- Control 4 Object Type
  ,                                       !- Control 4 Name
  0;                                      !- Temperature Difference Between Cutout And Setpoint {deltaC}

Schedule:Compact,
  Room_1418_b43ea9f0 Thermostat Schedule, !- Name
  Room_1418_b43ea9f0 Thermostat Schedule Type Limits, !- Schedule Type Limits Name
  Through: 12/31,                         !- Field 1
  For: AllDays,                           !- Field 2
  Until: 24:00,                           !- Field 3
  4;                                      !- Field 4

ScheduleTypeLimits,
  Room_1418_b43ea9f0 Thermostat Schedule Type Limits, !- Name
  0,                                      !- Lower Limit Value {BasedOnField A3}
  4,                                      !- Upper Limit Value {BasedOnField A3}
  DISCRETE;                               !- Numeric Type

ThermostatSetpoint:DualSetpoint,
  Setpoint_2eba0a66 9,                    !- Name
  ConstantSchedule_3ec00e82,              !- Heating Setpoint Temperature Schedule Name
  ConstantSchedule_b6307482;              !- Cooling Setpoint Temperature Schedule Name

ZoneHVAC:EquipmentConnections,
  Room_1418_b43ea9f0,                     !- Zone Name
  Room_1418_b43ea9f0 Equipment List,      !- Zone Conditioning Equipment List Name
  Room_1418_b43ea9f0 Inlet Node List,     !- Zone Air Inlet Node or NodeList Name
  Room_1418_b43ea9f0 Exhaust Node List,   !- Zone Air Exhaust Node or NodeList Name
  Node 10;                                !- Zone Air Node Name

NodeList,
  Room_1418_b43ea9f0 Inlet Node List,     !- Name
  Node 37;                                !- Node Name 1

NodeList,
  Room_1418_b43ea9f0 Exhaust Node List,   !- Name
  Node 36;                                !- Node Name 1

ZoneHVAC:IdealLoadsAirSystem,
  Room_1418_b43ea9f0 Ideal Loads Air System, !- Name
  ,                                       !- Availability Schedule Name
  Node 37,                                !- Zone Supply Air Node Name
  Node 36,                                !- Zone Exhaust Air Node Name
  ,                                       !- System Inlet Air Node Name
  50,                                     !- Maximum Heating Supply Air Temperature {C}
  13,                                     !- Minimum Cooling Supply Air Temperature {C}
  ,                                       !- Maximum Heating Supply Air Humidity Ratio {kgWater/kgDryAir}
  ,                                       !- Minimum Cooling Supply Air Humidity Ratio {kgWater/kgDryAir}
  LimitCapacity,                          !- Heating Limit
  ,                                       !- Maximum Heating Air Flow Rate {m3/s}
  Autosize,                               !- Maximum Sensible Heating Capacity {W}
  LimitFlowRateAndCapacity,               !- Cooling Limit
  Autosize,                               !- Maximum Cooling Air Flow Rate {m3/s}
  Autosize,                               !- Maximum Total Cooling Capacity {W}
  WeeklySchedule_2856ceac,                !- Heating Availability Schedule Name
  WeeklySchedule_2856ceac,                !- Cooling Availability Schedule Name
  None,                                   !- Dehumidification Control Type
  ,                                       !- Cooling Sensible Heat Ratio {dimensionless}
  ,                                       !- Humidification Control Type
  Ventilation_b96face6,                   !- Design Specification Outdoor Air Object Name
  ,                                       !- Outdoor Air Inlet Node Name
  None,                                   !- Demand Controlled Ventilation Type
  DifferentialDryBulb,                    !- Outdoor Air Economizer Type
  ,                                       !- Heat Recovery Type
  0,                                      !- Sensible Heat Recovery Effectiveness {dimensionless}
  0;                                      !- Latent Heat Recovery Effectiveness {dimensionless}

ZoneHVAC:EquipmentList,
  Room_1418_b43ea9f0 Equipment List,      !- Name
  SequentialLoad,                         !- Load Distribution Scheme
  ZoneHVAC:IdealLoadsAirSystem,           !- Zone Equipment Object Type 1
  Room_1418_b43ea9f0 Ideal Loads Air System, !- Zone Equipment Name 1
  1,                                      !- Zone Equipment Cooling Sequence 1
  1,                                      !- Zone Equipment Heating or No-Load Sequence 1
  ,                                       !- Zone Equipment Sequential Cooling Fraction Schedule Name 1
  ;                                       !- Zone Equipment Sequential Heating Fraction Schedule Name 1

Sizing:Zone,
  Room_1418_b43ea9f0,                     !- Zone or ZoneList Name
  SupplyAirTemperature,                   !- Zone Cooling Design Supply Air Temperature Input Method
  14,                                     !- Zone Cooling Design Supply Air Temperature {C}
  11.11,                                  !- Zone Cooling Design Supply Air Temperature Difference {deltaC}
  SupplyAirTemperature,                   !- Zone Heating Design Supply Air Temperature Input Method
  40,                                     !- Zone Heating Design Supply Air Temperature {C}
  11.11,                                  !- Zone Heating Design Supply Air Temperature Difference {deltaC}
  0.0085,                                 !- Zone Cooling Design Supply Air Humidity Ratio {kgWater/kgDryAir}
  0.008,                                  !- Zone Heating Design Supply Air Humidity Ratio {kgWater/kgDryAir}
  Room_1418_b43ea9f0 DSOA Space List,     !- Design Specification Outdoor Air Object Name
  ,                                       !- Zone Heating Sizing Factor
  ,                                       !- Zone Cooling Sizing Factor
  DesignDay,                              !- Cooling Design Air Flow Method
  0,                                      !- Cooling Design Air Flow Rate {m3/s}
  0.000762,                               !- Cooling Minimum Air Flow per Zone Floor Area {m3/s-m2}
  0,                                      !- Cooling Minimum Air Flow {m3/s}
  0,                                      !- Cooling Minimum Air Flow Fraction
  DesignDay,                              !- Heating Design Air Flow Method
  0,                                      !- Heating Design Air Flow Rate {m3/s}
  0.002032,                               !- Heating Maximum Air Flow per Zone Floor Area {m3/s-m2}
  0.1415762,                              !- Heating Maximum Air Flow {m3/s}
  0.3,                                    !- Heating Maximum Air Flow Fraction
  ,                                       !- Design Specification Zone Air Distribution Object Name
  No,                                     !- Account for Dedicated Outdoor Air System
  ,                                       !- Dedicated Outdoor Air System Control Strategy
  ,                                       !- Dedicated Outdoor Air Low Setpoint Temperature for Design {C}
  ,                                       !- Dedicated Outdoor Air High Setpoint Temperature for Design {C}
  Sensible Load Only No Latent Load,      !- Zone Load Sizing Method
  HumidityRatioDifference,                !- Zone Latent Cooling Design Supply Air Humidity Ratio Input Method
  ,                                       !- Zone Dehumidification Design Supply Air Humidity Ratio {kgWater/kgDryAir}
  0.005,                                  !- Zone Cooling Design Supply Air Humidity Ratio Difference {kgWater/kgDryAir}
  HumidityRatioDifference,                !- Zone Latent Heating Design Supply Air Humidity Ratio Input Method
  ,                                       !- Zone Humidification Design Supply Air Humidity Ratio {kgWater/kgDryAir}
  0.005;                                  !- Zone Humidification Design Supply Air Humidity Ratio Difference {kgWater/kgDryAir}

DesignSpecification:OutdoorAir:SpaceList,
  Room_1418_b43ea9f0 DSOA Space List,     !- Name
  Room_1418_b43ea9f0_Space,               !- Space Name 1
  Ventilation_b96face6;                   !- Space Design Specification Outdoor Air Object Name 1

Zone,
  Room_1419_3cec4092,                     !- Name
  ,                                       !- Direction of Relative North {deg}
  0,                                      !- X Origin {m}
  0,                                      !- Y Origin {m}
  0,                                      !- Z Origin {m}
  ,                                       !- Type
  1,                                      !- Multiplier
  4.5,                                    !- Ceiling Height {m}
  1399.68,                                !- Volume {m3}
  ,                                       !- Floor Area {m2}
  ,                                       !- Zone Inside Convection Algorithm
  ,                                       !- Zone Outside Convection Algorithm
  Yes;                                    !- Part of Total Floor Area

Space,
  Room_1419_3cec4092_Space,               !- Name
  Room_1419_3cec4092,                     !- Zone Name
  ,                                       !- Ceiling Height {m}
  ,                                       !- Volume {m3}
  ,                                       !- Floor Area {m2}
  ProgramType_f9e2e425;                   !- Space Type

BuildingSurface:Detailed,
  Room_1419_3cec4092..Face0,              !- Name
  Floor,                                  !- Surface Type
  OpaqueConstruction_47cf3687,            !- Construction Name
  Room_1419_3cec4092,                     !- Zone Name
  Room_1419_3cec4092_Space,               !- Space Name
  Surface,                                !- Outside Boundary Condition
  Room_1417_dd7012e5..Face1,              !- Outside Boundary Condition Object
  NoSun,                                  !- Sun Exposure
  NoWind,                                 !- Wind Exposure
  ,                                       !- View Factor to Ground
  ,                                       !- Number of Vertices
  93.6, 43.2, 4.5,                        !- X,Y,Z Vertex 1 {m}
  93.6, 28.8, 4.5,                        !- X,Y,Z Vertex 2 {m}
  72, 28.8, 4.5,                          !- X,Y,Z Vertex 3 {m}
  72, 43.2, 4.5;                          !- X,Y,Z Vertex 4 {m}

BuildingSurface:Detailed,
  Room_1419_3cec4092..Face1,              !- Name
  Ceiling,                                !- Surface Type
  OpaqueConstruction_47cf3687,            !- Construction Name
  Room_1419_3cec4092,                     !- Zone Name
  Room_1419_3cec4092_Space,               !- Space Name
  Surface,                                !- Outside Boundary Condition
  Room_1421_e7757f88..Face0,              !- Outside Boundary Condition Object
  NoSun,                                  !- Sun Exposure
  NoWind,                                 !- Wind Exposure
  ,                                       !- View Factor to Ground
  ,                                       !- Number of Vertices
  72, 43.2, 9,                            !- X,Y,Z Vertex 1 {m}
  72, 28.8, 9,                            !- X,Y,Z Vertex 2 {m}
  93.6, 28.8, 9,                          !- X,Y,Z Vertex 3 {m}
  93.6, 43.2, 9;                          !- X,Y,Z Vertex 4 {m}

BuildingSurface:Detailed,
  Room_1419_3cec4092..Face2,              !- Name
  Wall,                                   !- Surface Type
  OpaqueConstruction_47cf3687,            !- Construction Name
  Room_1419_3cec4092,                     !- Zone Name
  Room_1419_3cec4092_Space,               !- Space Name
  Outdoors,                               !- Outside Boundary Condition
  ,                                       !- Outside Boundary Condition Object
  SunExposed,                             !- Sun Exposure
  WindExposed,                            !- Wind Exposure
  ,                                       !- View Factor to Ground
  ,                                       !- Number of Vertices
  93.6, 43.2, 9,                          !- X,Y,Z Vertex 1 {m}
  93.6, 43.2, 4.5,                        !- X,Y,Z Vertex 2 {m}
  86.4, 43.2, 4.5,                        !- X,Y,Z Vertex 3 {m}
  86.4, 43.2, 9;                          !- X,Y,Z Vertex 4 {m}

BuildingSurface:Detailed,
  Room_1419_3cec4092..Face3,              !- Name
  Wall,                                   !- Surface Type
  OpaqueConstruction_47cf3687,            !- Construction Name
  Room_1419_3cec4092,                     !- Zone Name
  Room_1419_3cec4092_Space,               !- Space Name
  Outdoors,                               !- Outside Boundary Condition
  ,                                       !- Outside Boundary Condition Object
  SunExposed,                             !- Sun Exposure
  WindExposed,                            !- Wind Exposure
  ,                                       !- View Factor to Ground
  ,                                       !- Number of Vertices
  79.2, 28.8, 9,                          !- X,Y,Z Vertex 1 {m}
  79.2, 28.8, 4.5,                        !- X,Y,Z Vertex 2 {m}
  93.6, 28.8, 4.5,                        !- X,Y,Z Vertex 3 {m}
  93.6, 28.8, 9;                          !- X,Y,Z Vertex 4 {m}

BuildingSurface:Detailed,
  Room_1419_3cec4092..Face4,              !- Name
  Wall,                                   !- Surface Type
  OpaqueConstruction_47cf3687,            !- Construction Name
  Room_1419_3cec4092,                     !- Zone Name
  Room_1419_3cec4092_Space,               !- Space Name
  Surface,                                !- Outside Boundary Condition
  Room_1412_6e864ed8..Face18,             !- Outside Boundary Condition Object
  NoSun,                                  !- Sun Exposure
  NoWind,                                 !- Wind Exposure
  ,                                       !- View Factor to Ground
  ,                                       !- Number of Vertices
  72, 43.2, 9,                            !- X,Y,Z Vertex 1 {m}
  72, 43.2, 4.5,                          !- X,Y,Z Vertex 2 {m}
  72, 28.8, 4.5,                          !- X,Y,Z Vertex 3 {m}
  72, 28.8, 9;                            !- X,Y,Z Vertex 4 {m}

FenestrationSurface:Detailed,
  Aperture_5461f52f,                      !- Name
  Window,                                 !- Surface Type
  WindowConstruction_1dfe9b5d,            !- Construction Name
  Room_1419_3cec4092..Face4,              !- Building Surface Name
  Ajd_Aperture_5461f52f,                  !- Outside Boundary Condition Object
  ,                                       !- View Factor to Ground
  ,                                       !- Frame and Divider Name
  ,                                       !- Multiplier
  ,                                       !- Number of Vertices
  72, 35.9, 6.8,                          !- X,Y,Z Vertex 1 {m}
  72, 35.9, 4.7,                          !- X,Y,Z Vertex 2 {m}
  72, 35, 4.7,                            !- X,Y,Z Vertex 3 {m}
  72, 35, 6.8;                            !- X,Y,Z Vertex 4 {m}

FenestrationSurface:Detailed,
  Aperture_978b90f3,                      !- Name
  Window,                                 !- Surface Type
  WindowConstruction_1dfe9b5d,            !- Construction Name
  Room_1419_3cec4092..Face4,              !- Building Surface Name
  Ajd_Aperture_978b90f3,                  !- Outside Boundary Condition Object
  ,                                       !- View Factor to Ground
  ,                                       !- Frame and Divider Name
  ,                                       !- Multiplier
  ,                                       !- Number of Vertices
  72, 29.7, 6.8,                          !- X,Y,Z Vertex 1 {m}
  72, 29.7, 4.7,                          !- X,Y,Z Vertex 2 {m}
  72, 28.9, 4.7,                          !- X,Y,Z Vertex 3 {m}
  72, 28.9, 6.8;                          !- X,Y,Z Vertex 4 {m}

FenestrationSurface:Detailed,
  Aperture_9d8150d3,                      !- Name
  Window,                                 !- Surface Type
  WindowConstruction_1dfe9b5d,            !- Construction Name
  Room_1419_3cec4092..Face4,              !- Building Surface Name
  Ajd_Aperture_9d8150d3,                  !- Outside Boundary Condition Object
  ,                                       !- View Factor to Ground
  ,                                       !- Frame and Divider Name
  ,                                       !- Multiplier
  ,                                       !- Number of Vertices
  72, 36.9, 6.8,                          !- X,Y,Z Vertex 1 {m}
  72, 36.9, 4.7,                          !- X,Y,Z Vertex 2 {m}
  72, 36.1, 4.7,                          !- X,Y,Z Vertex 3 {m}
  72, 36.1, 6.8;                          !- X,Y,Z Vertex 4 {m}

FenestrationSurface:Detailed,
  Aperture_b946a21e,                      !- Name
  Window,                                 !- Surface Type
  WindowConstruction_1dfe9b5d,            !- Construction Name
  Room_1419_3cec4092..Face4,              !- Building Surface Name
  Ajd_Aperture_b946a21e,                  !- Outside Boundary Condition Object
  ,                                       !- View Factor to Ground
  ,                                       !- Frame and Divider Name
  ,                                       !- Multiplier
  ,                                       !- Number of Vertices
  72, 43.1, 6.8,                          !- X,Y,Z Vertex 1 {m}
  72, 43.1, 4.7,                          !- X,Y,Z Vertex 2 {m}
  72, 42.2, 4.7,                          !- X,Y,Z Vertex 3 {m}
  72, 42.2, 6.8;                          !- X,Y,Z Vertex 4 {m}

BuildingSurface:Detailed,
  Room_1419_3cec4092..Face5,              !- Name
  Wall,                                   !- Surface Type
  OpaqueConstruction_47cf3687,            !- Construction Name
  Room_1419_3cec4092,                     !- Zone Name
  Room_1419_3cec4092_Space,               !- Space Name
  Surface,                                !- Outside Boundary Condition
  Room_1412_6e864ed8..Face19,             !- Outside Boundary Condition Object
  NoSun,                                  !- Sun Exposure
  NoWind,                                 !- Wind Exposure
  ,                                       !- View Factor to Ground
  ,                                       !- Number of Vertices
  86.4, 43.2, 9,                          !- X,Y,Z Vertex 1 {m}
  86.4, 43.2, 4.5,                        !- X,Y,Z Vertex 2 {m}
  72, 43.2, 4.5,                          !- X,Y,Z Vertex 3 {m}
  72, 43.2, 9;                            !- X,Y,Z Vertex 4 {m}

FenestrationSurface:Detailed,
  Ajd_Aperture_88f04a45,                  !- Name
  Window,                                 !- Surface Type
  WindowConstruction_1dfe9b5d,            !- Construction Name
  Room_1419_3cec4092..Face5,              !- Building Surface Name
  Aperture_88f04a45,                      !- Outside Boundary Condition Object
  ,                                       !- View Factor to Ground
  ,                                       !- Frame and Divider Name
  ,                                       !- Multiplier
  ,                                       !- Number of Vertices
  73, 43.2, 6.8,                          !- X,Y,Z Vertex 1 {m}
  73, 43.2, 4.7,                          !- X,Y,Z Vertex 2 {m}
  72.1, 43.2, 4.7,                        !- X,Y,Z Vertex 3 {m}
  72.1, 43.2, 6.8;                        !- X,Y,Z Vertex 4 {m}

FenestrationSurface:Detailed,
  Ajd_Aperture_9e87f689,                  !- Name
  Window,                                 !- Surface Type
  WindowConstruction_1dfe9b5d,            !- Construction Name
  Room_1419_3cec4092..Face5,              !- Building Surface Name
  Aperture_9e87f689,                      !- Outside Boundary Condition Object
  ,                                       !- View Factor to Ground
  ,                                       !- Frame and Divider Name
  ,                                       !- Multiplier
  ,                                       !- Number of Vertices
  80.2, 43.2, 6.8,                        !- X,Y,Z Vertex 1 {m}
  80.2, 43.2, 4.7,                        !- X,Y,Z Vertex 2 {m}
  79.3, 43.2, 4.7,                        !- X,Y,Z Vertex 3 {m}
  79.3, 43.2, 6.8;                        !- X,Y,Z Vertex 4 {m}

FenestrationSurface:Detailed,
  Ajd_Aperture_a0da57ef,                  !- Name
  Window,                                 !- Surface Type
  WindowConstruction_1dfe9b5d,            !- Construction Name
  Room_1419_3cec4092..Face5,              !- Building Surface Name
  Aperture_a0da57ef,                      !- Outside Boundary Condition Object
  ,                                       !- View Factor to Ground
  ,                                       !- Frame and Divider Name
  ,                                       !- Multiplier
  ,                                       !- Number of Vertices
  86.3, 43.2, 6.8,                        !- X,Y,Z Vertex 1 {m}
  86.3, 43.2, 4.7,                        !- X,Y,Z Vertex 2 {m}
  85.5, 43.2, 4.7,                        !- X,Y,Z Vertex 3 {m}
  85.5, 43.2, 6.8;                        !- X,Y,Z Vertex 4 {m}

FenestrationSurface:Detailed,
  Ajd_Aperture_ba2c1bb4,                  !- Name
  Window,                                 !- Surface Type
  WindowConstruction_1dfe9b5d,            !- Construction Name
  Room_1419_3cec4092..Face5,              !- Building Surface Name
  Aperture_ba2c1bb4,                      !- Outside Boundary Condition Object
  ,                                       !- View Factor to Ground
  ,                                       !- Frame and Divider Name
  ,                                       !- Multiplier
  ,                                       !- Number of Vertices
  79.1, 43.2, 6.8,                        !- X,Y,Z Vertex 1 {m}
  79.1, 43.2, 4.7,                        !- X,Y,Z Vertex 2 {m}
  78.3, 43.2, 4.7,                        !- X,Y,Z Vertex 3 {m}
  78.3, 43.2, 6.8;                        !- X,Y,Z Vertex 4 {m}

BuildingSurface:Detailed,
  Room_1419_3cec4092..Face6,              !- Name
  Wall,                                   !- Surface Type
  OpaqueConstruction_47cf3687,            !- Construction Name
  Room_1419_3cec4092,                     !- Zone Name
  Room_1419_3cec4092_Space,               !- Space Name
  Outdoors,                               !- Outside Boundary Condition
  ,                                       !- Outside Boundary Condition Object
  SunExposed,                             !- Sun Exposure
  WindExposed,                            !- Wind Exposure
  ,                                       !- View Factor to Ground
  ,                                       !- Number of Vertices
  93.6, 28.8, 9,                          !- X,Y,Z Vertex 1 {m}
  93.6, 28.8, 4.5,                        !- X,Y,Z Vertex 2 {m}
  93.6, 43.2, 4.5,                        !- X,Y,Z Vertex 3 {m}
  93.6, 43.2, 9;                          !- X,Y,Z Vertex 4 {m}

BuildingSurface:Detailed,
  Room_1419_3cec4092..Face7,              !- Name
  Wall,                                   !- Surface Type
  OpaqueConstruction_47cf3687,            !- Construction Name
  Room_1419_3cec4092,                     !- Zone Name
  Room_1419_3cec4092_Space,               !- Space Name
  Surface,                                !- Outside Boundary Condition
  Room_1412_6e864ed8..Face21,             !- Outside Boundary Condition Object
  NoSun,                                  !- Sun Exposure
  NoWind,                                 !- Wind Exposure
  ,                                       !- View Factor to Ground
  ,                                       !- Number of Vertices
  72, 28.8, 9,                            !- X,Y,Z Vertex 1 {m}
  72, 28.8, 4.5,                          !- X,Y,Z Vertex 2 {m}
  79.2, 28.8, 4.5,                        !- X,Y,Z Vertex 3 {m}
  79.2, 28.8, 9;                          !- X,Y,Z Vertex 4 {m}

FenestrationSurface:Detailed,
  Ajd_Aperture_a0432652,                  !- Name
  Window,                                 !- Surface Type
  WindowConstruction_1dfe9b5d,            !- Construction Name
  Room_1419_3cec4092..Face7,              !- Building Surface Name
  Aperture_a0432652,                      !- Outside Boundary Condition Object
  ,                                       !- View Factor to Ground
  ,                                       !- Frame and Divider Name
  ,                                       !- Multiplier
  ,                                       !- Number of Vertices
  72.1, 28.8, 6.8,                        !- X,Y,Z Vertex 1 {m}
  72.1, 28.8, 4.7,                        !- X,Y,Z Vertex 2 {m}
  72.9, 28.8, 4.7,                        !- X,Y,Z Vertex 3 {m}
  72.9, 28.8, 6.8;                        !- X,Y,Z Vertex 4 {m}

FenestrationSurface:Detailed,
  Ajd_Aperture_efa53cae,                  !- Name
  Window,                                 !- Surface Type
  WindowConstruction_1dfe9b5d,            !- Construction Name
  Room_1419_3cec4092..Face7,              !- Building Surface Name
  Aperture_efa53cae,                      !- Outside Boundary Condition Object
  ,                                       !- View Factor to Ground
  ,                                       !- Frame and Divider Name
  ,                                       !- Multiplier
  ,                                       !- Number of Vertices
  78.2, 28.8, 6.8,                        !- X,Y,Z Vertex 1 {m}
  78.2, 28.8, 4.7,                        !- X,Y,Z Vertex 2 {m}
  79.1, 28.8, 4.7,                        !- X,Y,Z Vertex 3 {m}
  79.1, 28.8, 6.8;                        !- X,Y,Z Vertex 4 {m}

ZoneControl:Thermostat,
  Room_1419_3cec4092 Thermostat,          !- Name
  Room_1419_3cec4092,                     !- Zone or ZoneList Name
  Room_1419_3cec4092 Thermostat Schedule, !- Control Type Schedule Name
  ThermostatSetpoint:DualSetpoint,        !- Control 1 Object Type
  Setpoint_2eba0a66 10,                   !- Control 1 Name
  ,                                       !- Control 2 Object Type
  ,                                       !- Control 2 Name
  ,                                       !- Control 3 Object Type
  ,                                       !- Control 3 Name
  ,                                       !- Control 4 Object Type
  ,                                       !- Control 4 Name
  0;                                      !- Temperature Difference Between Cutout And Setpoint {deltaC}

Schedule:Compact,
  Room_1419_3cec4092 Thermostat Schedule, !- Name
  Room_1419_3cec4092 Thermostat Schedule Type Limits, !- Schedule Type Limits Name
  Through: 12/31,                         !- Field 1
  For: AllDays,                           !- Field 2
  Until: 24:00,                           !- Field 3
  4;                                      !- Field 4

ScheduleTypeLimits,
  Room_1419_3cec4092 Thermostat Schedule Type Limits, !- Name
  0,                                      !- Lower Limit Value {BasedOnField A3}
  4,                                      !- Upper Limit Value {BasedOnField A3}
  DISCRETE;                               !- Numeric Type

ThermostatSetpoint:DualSetpoint,
  Setpoint_2eba0a66 10,                   !- Name
  ConstantSchedule_3ec00e82,              !- Heating Setpoint Temperature Schedule Name
  ConstantSchedule_b6307482;              !- Cooling Setpoint Temperature Schedule Name

ZoneHVAC:EquipmentConnections,
  Room_1419_3cec4092,                     !- Zone Name
  Room_1419_3cec4092 Equipment List,      !- Zone Conditioning Equipment List Name
  Room_1419_3cec4092 Inlet Node List,     !- Zone Air Inlet Node or NodeList Name
  Room_1419_3cec4092 Exhaust Node List,   !- Zone Air Exhaust Node or NodeList Name
  Node 11;                                !- Zone Air Node Name

NodeList,
  Room_1419_3cec4092 Inlet Node List,     !- Name
  Node 39;                                !- Node Name 1

NodeList,
  Room_1419_3cec4092 Exhaust Node List,   !- Name
  Node 38;                                !- Node Name 1

ZoneHVAC:IdealLoadsAirSystem,
  Room_1419_3cec4092 Ideal Loads Air System, !- Name
  ,                                       !- Availability Schedule Name
  Node 39,                                !- Zone Supply Air Node Name
  Node 38,                                !- Zone Exhaust Air Node Name
  ,                                       !- System Inlet Air Node Name
  50,                                     !- Maximum Heating Supply Air Temperature {C}
  13,                                     !- Minimum Cooling Supply Air Temperature {C}
  ,                                       !- Maximum Heating Supply Air Humidity Ratio {kgWater/kgDryAir}
  ,                                       !- Minimum Cooling Supply Air Humidity Ratio {kgWater/kgDryAir}
  LimitCapacity,                          !- Heating Limit
  ,                                       !- Maximum Heating Air Flow Rate {m3/s}
  Autosize,                               !- Maximum Sensible Heating Capacity {W}
  LimitFlowRateAndCapacity,               !- Cooling Limit
  Autosize,                               !- Maximum Cooling Air Flow Rate {m3/s}
  Autosize,                               !- Maximum Total Cooling Capacity {W}
  WeeklySchedule_2856ceac,                !- Heating Availability Schedule Name
  WeeklySchedule_2856ceac,                !- Cooling Availability Schedule Name
  None,                                   !- Dehumidification Control Type
  ,                                       !- Cooling Sensible Heat Ratio {dimensionless}
  ,                                       !- Humidification Control Type
  Ventilation_b96face6,                   !- Design Specification Outdoor Air Object Name
  ,                                       !- Outdoor Air Inlet Node Name
  None,                                   !- Demand Controlled Ventilation Type
  DifferentialDryBulb,                    !- Outdoor Air Economizer Type
  ,                                       !- Heat Recovery Type
  0,                                      !- Sensible Heat Recovery Effectiveness {dimensionless}
  0;                                      !- Latent Heat Recovery Effectiveness {dimensionless}

ZoneHVAC:EquipmentList,
  Room_1419_3cec4092 Equipment List,      !- Name
  SequentialLoad,                         !- Load Distribution Scheme
  ZoneHVAC:IdealLoadsAirSystem,           !- Zone Equipment Object Type 1
  Room_1419_3cec4092 Ideal Loads Air System, !- Zone Equipment Name 1
  1,                                      !- Zone Equipment Cooling Sequence 1
  1,                                      !- Zone Equipment Heating or No-Load Sequence 1
  ,                                       !- Zone Equipment Sequential Cooling Fraction Schedule Name 1
  ;                                       !- Zone Equipment Sequential Heating Fraction Schedule Name 1

Sizing:Zone,
  Room_1419_3cec4092,                     !- Zone or ZoneList Name
  SupplyAirTemperature,                   !- Zone Cooling Design Supply Air Temperature Input Method
  14,                                     !- Zone Cooling Design Supply Air Temperature {C}
  11.11,                                  !- Zone Cooling Design Supply Air Temperature Difference {deltaC}
  SupplyAirTemperature,                   !- Zone Heating Design Supply Air Temperature Input Method
  40,                                     !- Zone Heating Design Supply Air Temperature {C}
  11.11,                                  !- Zone Heating Design Supply Air Temperature Difference {deltaC}
  0.0085,                                 !- Zone Cooling Design Supply Air Humidity Ratio {kgWater/kgDryAir}
  0.008,                                  !- Zone Heating Design Supply Air Humidity Ratio {kgWater/kgDryAir}
  Room_1419_3cec4092 DSOA Space List,     !- Design Specification Outdoor Air Object Name
  ,                                       !- Zone Heating Sizing Factor
  ,                                       !- Zone Cooling Sizing Factor
  DesignDay,                              !- Cooling Design Air Flow Method
  0,                                      !- Cooling Design Air Flow Rate {m3/s}
  0.000762,                               !- Cooling Minimum Air Flow per Zone Floor Area {m3/s-m2}
  0,                                      !- Cooling Minimum Air Flow {m3/s}
  0,                                      !- Cooling Minimum Air Flow Fraction
  DesignDay,                              !- Heating Design Air Flow Method
  0,                                      !- Heating Design Air Flow Rate {m3/s}
  0.002032,                               !- Heating Maximum Air Flow per Zone Floor Area {m3/s-m2}
  0.1415762,                              !- Heating Maximum Air Flow {m3/s}
  0.3,                                    !- Heating Maximum Air Flow Fraction
  ,                                       !- Design Specification Zone Air Distribution Object Name
  No,                                     !- Account for Dedicated Outdoor Air System
  ,                                       !- Dedicated Outdoor Air System Control Strategy
  ,                                       !- Dedicated Outdoor Air Low Setpoint Temperature for Design {C}
  ,                                       !- Dedicated Outdoor Air High Setpoint Temperature for Design {C}
  Sensible Load Only No Latent Load,      !- Zone Load Sizing Method
  HumidityRatioDifference,                !- Zone Latent Cooling Design Supply Air Humidity Ratio Input Method
  ,                                       !- Zone Dehumidification Design Supply Air Humidity Ratio {kgWater/kgDryAir}
  0.005,                                  !- Zone Cooling Design Supply Air Humidity Ratio Difference {kgWater/kgDryAir}
  HumidityRatioDifference,                !- Zone Latent Heating Design Supply Air Humidity Ratio Input Method
  ,                                       !- Zone Humidification Design Supply Air Humidity Ratio {kgWater/kgDryAir}
  0.005;                                  !- Zone Humidification Design Supply Air Humidity Ratio Difference {kgWater/kgDryAir}

DesignSpecification:OutdoorAir:SpaceList,
  Room_1419_3cec4092 DSOA Space List,     !- Name
  Room_1419_3cec4092_Space,               !- Space Name 1
  Ventilation_b96face6;                   !- Space Design Specification Outdoor Air Object Name 1

Zone,
  Room_1420_b9536d43,                     !- Name
  ,                                       !- Direction of Relative North {deg}
  0,                                      !- X Origin {m}
  0,                                      !- Y Origin {m}
  0,                                      !- Z Origin {m}
  ,                                       !- Type
  1,                                      !- Multiplier
  4.5,                                    !- Ceiling Height {m}
  1399.68,                                !- Volume {m3}
  ,                                       !- Floor Area {m2}
  ,                                       !- Zone Inside Convection Algorithm
  ,                                       !- Zone Outside Convection Algorithm
  Yes;                                    !- Part of Total Floor Area

Space,
  Room_1420_b9536d43_Space,               !- Name
  Room_1420_b9536d43,                     !- Zone Name
  ,                                       !- Ceiling Height {m}
  ,                                       !- Volume {m3}
  ,                                       !- Floor Area {m2}
  ProgramType_f9e2e425;                   !- Space Type

BuildingSurface:Detailed,
  Room_1420_b9536d43..Face0,              !- Name
  Floor,                                  !- Surface Type
  OpaqueConstruction_47cf3687,            !- Construction Name
  Room_1420_b9536d43,                     !- Zone Name
  Room_1420_b9536d43_Space,               !- Space Name
  Surface,                                !- Outside Boundary Condition
  Room_1418_b43ea9f0..Face1,              !- Outside Boundary Condition Object
  NoSun,                                  !- Sun Exposure
  NoWind,                                 !- Wind Exposure
  ,                                       !- View Factor to Ground
  ,                                       !- Number of Vertices
  36, 43.2, 9,                            !- X,Y,Z Vertex 1 {m}
  36, 28.8, 9,                            !- X,Y,Z Vertex 2 {m}
  14.4, 28.8, 9,                          !- X,Y,Z Vertex 3 {m}
  14.4, 43.2, 9;                          !- X,Y,Z Vertex 4 {m}

BuildingSurface:Detailed,
  Room_1420_b9536d43..Face1,              !- Name
  Ceiling,                                !- Surface Type
  OpaqueConstruction_47cf3687,            !- Construction Name
  Room_1420_b9536d43,                     !- Zone Name
  Room_1420_b9536d43_Space,               !- Space Name
  Surface,                                !- Outside Boundary Condition
  Room_1422_86173f66..Face0,              !- Outside Boundary Condition Object
  NoSun,                                  !- Sun Exposure
  NoWind,                                 !- Wind Exposure
  ,                                       !- View Factor to Ground
  ,                                       !- Number of Vertices
  14.4, 43.2, 13.5,                       !- X,Y,Z Vertex 1 {m}
  14.4, 28.8, 13.5,                       !- X,Y,Z Vertex 2 {m}
  36, 28.8, 13.5,                         !- X,Y,Z Vertex 3 {m}
  36, 43.2, 13.5;                         !- X,Y,Z Vertex 4 {m}

BuildingSurface:Detailed,
  Room_1420_b9536d43..Face2,              !- Name
  Wall,                                   !- Surface Type
  OpaqueConstruction_47cf3687,            !- Construction Name
  Room_1420_b9536d43,                     !- Zone Name
  Room_1420_b9536d43_Space,               !- Space Name
  Outdoors,                               !- Outside Boundary Condition
  ,                                       !- Outside Boundary Condition Object
  SunExposed,                             !- Sun Exposure
  WindExposed,                            !- Wind Exposure
  ,                                       !- View Factor to Ground
  ,                                       !- Number of Vertices
  14.4, 28.8, 13.5,                       !- X,Y,Z Vertex 1 {m}
  14.4, 28.8, 9,                          !- X,Y,Z Vertex 2 {m}
  36, 28.8, 9,                            !- X,Y,Z Vertex 3 {m}
  36, 28.8, 13.5;                         !- X,Y,Z Vertex 4 {m}

BuildingSurface:Detailed,
  Room_1420_b9536d43..Face3,              !- Name
  Wall,                                   !- Surface Type
  OpaqueConstruction_47cf3687,            !- Construction Name
  Room_1420_b9536d43,                     !- Zone Name
  Room_1420_b9536d43_Space,               !- Space Name
  Surface,                                !- Outside Boundary Condition
  Room_1413_b054cecc..Face7,              !- Outside Boundary Condition Object
  NoSun,                                  !- Sun Exposure
  NoWind,                                 !- Wind Exposure
  ,                                       !- View Factor to Ground
  ,                                       !- Number of Vertices
  36, 43.2, 13.5,                         !- X,Y,Z Vertex 1 {m}
  36, 43.2, 9,                            !- X,Y,Z Vertex 2 {m}
  14.4, 43.2, 9,                          !- X,Y,Z Vertex 3 {m}
  14.4, 43.2, 13.5;                       !- X,Y,Z Vertex 4 {m}

FenestrationSurface:Detailed,
  Aperture_194c9629,                      !- Name
  Window,                                 !- Surface Type
  WindowConstruction_1dfe9b5d,            !- Construction Name
  Room_1420_b9536d43..Face3,              !- Building Surface Name
  Ajd_Aperture_194c9629,                  !- Outside Boundary Condition Object
  ,                                       !- View Factor to Ground
  ,                                       !- Frame and Divider Name
  ,                                       !- Multiplier
  ,                                       !- Number of Vertices
  22.6, 43.2, 11.3,                       !- X,Y,Z Vertex 1 {m}
  22.6, 43.2, 9.2,                        !- X,Y,Z Vertex 2 {m}
  21.7, 43.2, 9.2,                        !- X,Y,Z Vertex 3 {m}
  21.7, 43.2, 11.3;                       !- X,Y,Z Vertex 4 {m}

FenestrationSurface:Detailed,
  Aperture_1c4d0efe,                      !- Name
  Window,                                 !- Surface Type
  WindowConstruction_1dfe9b5d,            !- Construction Name
  Room_1420_b9536d43..Face3,              !- Building Surface Name
  Ajd_Aperture_1c4d0efe,                  !- Outside Boundary Condition Object
  ,                                       !- View Factor to Ground
  ,                                       !- Frame and Divider Name
  ,                                       !- Multiplier
  ,                                       !- Number of Vertices
  21.5, 43.2, 11.3,                       !- X,Y,Z Vertex 1 {m}
  21.5, 43.2, 9.2,                        !- X,Y,Z Vertex 2 {m}
  20.7, 43.2, 9.2,                        !- X,Y,Z Vertex 3 {m}
  20.7, 43.2, 11.3;                       !- X,Y,Z Vertex 4 {m}

FenestrationSurface:Detailed,
  Aperture_2279dfad,                      !- Name
  Window,                                 !- Surface Type
  WindowConstruction_1dfe9b5d,            !- Construction Name
  Room_1420_b9536d43..Face3,              !- Building Surface Name
  Ajd_Aperture_2279dfad,                  !- Outside Boundary Condition Object
  ,                                       !- View Factor to Ground
  ,                                       !- Frame and Divider Name
  ,                                       !- Multiplier
  ,                                       !- Number of Vertices
  28.7, 43.2, 11.3,                       !- X,Y,Z Vertex 1 {m}
  28.7, 43.2, 9.2,                        !- X,Y,Z Vertex 2 {m}
  27.9, 43.2, 9.2,                        !- X,Y,Z Vertex 3 {m}
  27.9, 43.2, 11.3;                       !- X,Y,Z Vertex 4 {m}

FenestrationSurface:Detailed,
  Aperture_84a7ebe1,                      !- Name
  Window,                                 !- Surface Type
  WindowConstruction_1dfe9b5d,            !- Construction Name
  Room_1420_b9536d43..Face3,              !- Building Surface Name
  Ajd_Aperture_84a7ebe1,                  !- Outside Boundary Condition Object
  ,                                       !- View Factor to Ground
  ,                                       !- Frame and Divider Name
  ,                                       !- Multiplier
  ,                                       !- Number of Vertices
  15.4, 43.2, 11.3,                       !- X,Y,Z Vertex 1 {m}
  15.4, 43.2, 9.2,                        !- X,Y,Z Vertex 2 {m}
  14.5, 43.2, 9.2,                        !- X,Y,Z Vertex 3 {m}
  14.5, 43.2, 11.3;                       !- X,Y,Z Vertex 4 {m}

FenestrationSurface:Detailed,
  Aperture_aac0078e,                      !- Name
  Window,                                 !- Surface Type
  WindowConstruction_1dfe9b5d,            !- Construction Name
  Room_1420_b9536d43..Face3,              !- Building Surface Name
  Ajd_Aperture_aac0078e,                  !- Outside Boundary Condition Object
  ,                                       !- View Factor to Ground
  ,                                       !- Frame and Divider Name
  ,                                       !- Multiplier
  ,                                       !- Number of Vertices
  29.8, 43.2, 11.3,                       !- X,Y,Z Vertex 1 {m}
  29.8, 43.2, 9.2,                        !- X,Y,Z Vertex 2 {m}
  28.9, 43.2, 9.2,                        !- X,Y,Z Vertex 3 {m}
  28.9, 43.2, 11.3;                       !- X,Y,Z Vertex 4 {m}

FenestrationSurface:Detailed,
  Aperture_b38096f3,                      !- Name
  Window,                                 !- Surface Type
  WindowConstruction_1dfe9b5d,            !- Construction Name
  Room_1420_b9536d43..Face3,              !- Building Surface Name
  Ajd_Aperture_b38096f3,                  !- Outside Boundary Condition Object
  ,                                       !- View Factor to Ground
  ,                                       !- Frame and Divider Name
  ,                                       !- Multiplier
  ,                                       !- Number of Vertices
  35.9, 43.2, 11.3,                       !- X,Y,Z Vertex 1 {m}
  35.9, 43.2, 9.2,                        !- X,Y,Z Vertex 2 {m}
  35.1, 43.2, 9.2,                        !- X,Y,Z Vertex 3 {m}
  35.1, 43.2, 11.3;                       !- X,Y,Z Vertex 4 {m}

BuildingSurface:Detailed,
  Room_1420_b9536d43..Face4,              !- Name
  Wall,                                   !- Surface Type
  OpaqueConstruction_47cf3687,            !- Construction Name
  Room_1420_b9536d43,                     !- Zone Name
  Room_1420_b9536d43_Space,               !- Space Name
  Outdoors,                               !- Outside Boundary Condition
  ,                                       !- Outside Boundary Condition Object
  SunExposed,                             !- Sun Exposure
  WindExposed,                            !- Wind Exposure
  ,                                       !- View Factor to Ground
  ,                                       !- Number of Vertices
  36, 28.8, 13.5,                         !- X,Y,Z Vertex 1 {m}
  36, 28.8, 9,                            !- X,Y,Z Vertex 2 {m}
  36, 43.2, 9,                            !- X,Y,Z Vertex 3 {m}
  36, 43.2, 13.5;                         !- X,Y,Z Vertex 4 {m}

BuildingSurface:Detailed,
  Room_1420_b9536d43..Face5,              !- Name
  Wall,                                   !- Surface Type
  OpaqueConstruction_47cf3687,            !- Construction Name
  Room_1420_b9536d43,                     !- Zone Name
  Room_1420_b9536d43_Space,               !- Space Name
  Outdoors,                               !- Outside Boundary Condition
  ,                                       !- Outside Boundary Condition Object
  SunExposed,                             !- Sun Exposure
  WindExposed,                            !- Wind Exposure
  ,                                       !- View Factor to Ground
  ,                                       !- Number of Vertices
  14.4, 43.2, 13.5,                       !- X,Y,Z Vertex 1 {m}
  14.4, 43.2, 9,                          !- X,Y,Z Vertex 2 {m}
  14.4, 28.8, 9,                          !- X,Y,Z Vertex 3 {m}
  14.4, 28.8, 13.5;                       !- X,Y,Z Vertex 4 {m}

ZoneControl:Thermostat,
  Room_1420_b9536d43 Thermostat,          !- Name
  Room_1420_b9536d43,                     !- Zone or ZoneList Name
  Room_1420_b9536d43 Thermostat Schedule, !- Control Type Schedule Name
  ThermostatSetpoint:DualSetpoint,        !- Control 1 Object Type
  Setpoint_2eba0a66 11,                   !- Control 1 Name
  ,                                       !- Control 2 Object Type
  ,                                       !- Control 2 Name
  ,                                       !- Control 3 Object Type
  ,                                       !- Control 3 Name
  ,                                       !- Control 4 Object Type
  ,                                       !- Control 4 Name
  0;                                      !- Temperature Difference Between Cutout And Setpoint {deltaC}

Schedule:Compact,
  Room_1420_b9536d43 Thermostat Schedule, !- Name
  Room_1420_b9536d43 Thermostat Schedule Type Limits, !- Schedule Type Limits Name
  Through: 12/31,                         !- Field 1
  For: AllDays,                           !- Field 2
  Until: 24:00,                           !- Field 3
  4;                                      !- Field 4

ScheduleTypeLimits,
  Room_1420_b9536d43 Thermostat Schedule Type Limits, !- Name
  0,                                      !- Lower Limit Value {BasedOnField A3}
  4,                                      !- Upper Limit Value {BasedOnField A3}
  DISCRETE;                               !- Numeric Type

ThermostatSetpoint:DualSetpoint,
  Setpoint_2eba0a66 11,                   !- Name
  ConstantSchedule_3ec00e82,              !- Heating Setpoint Temperature Schedule Name
  ConstantSchedule_b6307482;              !- Cooling Setpoint Temperature Schedule Name

ZoneHVAC:EquipmentConnections,
  Room_1420_b9536d43,                     !- Zone Name
  Room_1420_b9536d43 Equipment List,      !- Zone Conditioning Equipment List Name
  Room_1420_b9536d43 Inlet Node List,     !- Zone Air Inlet Node or NodeList Name
  Room_1420_b9536d43 Exhaust Node List,   !- Zone Air Exhaust Node or NodeList Name
  Node 12;                                !- Zone Air Node Name

NodeList,
  Room_1420_b9536d43 Inlet Node List,     !- Name
  Node 41;                                !- Node Name 1

NodeList,
  Room_1420_b9536d43 Exhaust Node List,   !- Name
  Node 40;                                !- Node Name 1

ZoneHVAC:IdealLoadsAirSystem,
  Room_1420_b9536d43 Ideal Loads Air System, !- Name
  ,                                       !- Availability Schedule Name
  Node 41,                                !- Zone Supply Air Node Name
  Node 40,                                !- Zone Exhaust Air Node Name
  ,                                       !- System Inlet Air Node Name
  50,                                     !- Maximum Heating Supply Air Temperature {C}
  13,                                     !- Minimum Cooling Supply Air Temperature {C}
  ,                                       !- Maximum Heating Supply Air Humidity Ratio {kgWater/kgDryAir}
  ,                                       !- Minimum Cooling Supply Air Humidity Ratio {kgWater/kgDryAir}
  LimitCapacity,                          !- Heating Limit
  ,                                       !- Maximum Heating Air Flow Rate {m3/s}
  Autosize,                               !- Maximum Sensible Heating Capacity {W}
  LimitFlowRateAndCapacity,               !- Cooling Limit
  Autosize,                               !- Maximum Cooling Air Flow Rate {m3/s}
  Autosize,                               !- Maximum Total Cooling Capacity {W}
  WeeklySchedule_2856ceac,                !- Heating Availability Schedule Name
  WeeklySchedule_2856ceac,                !- Cooling Availability Schedule Name
  None,                                   !- Dehumidification Control Type
  ,                                       !- Cooling Sensible Heat Ratio {dimensionless}
  ,                                       !- Humidification Control Type
  Ventilation_b96face6,                   !- Design Specification Outdoor Air Object Name
  ,                                       !- Outdoor Air Inlet Node Name
  None,                                   !- Demand Controlled Ventilation Type
  DifferentialDryBulb,                    !- Outdoor Air Economizer Type
  ,                                       !- Heat Recovery Type
  0,                                      !- Sensible Heat Recovery Effectiveness {dimensionless}
  0;                                      !- Latent Heat Recovery Effectiveness {dimensionless}

ZoneHVAC:EquipmentList,
  Room_1420_b9536d43 Equipment List,      !- Name
  SequentialLoad,                         !- Load Distribution Scheme
  ZoneHVAC:IdealLoadsAirSystem,           !- Zone Equipment Object Type 1
  Room_1420_b9536d43 Ideal Loads Air System, !- Zone Equipment Name 1
  1,                                      !- Zone Equipment Cooling Sequence 1
  1,                                      !- Zone Equipment Heating or No-Load Sequence 1
  ,                                       !- Zone Equipment Sequential Cooling Fraction Schedule Name 1
  ;                                       !- Zone Equipment Sequential Heating Fraction Schedule Name 1

Sizing:Zone,
  Room_1420_b9536d43,                     !- Zone or ZoneList Name
  SupplyAirTemperature,                   !- Zone Cooling Design Supply Air Temperature Input Method
  14,                                     !- Zone Cooling Design Supply Air Temperature {C}
  11.11,                                  !- Zone Cooling Design Supply Air Temperature Difference {deltaC}
  SupplyAirTemperature,                   !- Zone Heating Design Supply Air Temperature Input Method
  40,                                     !- Zone Heating Design Supply Air Temperature {C}
  11.11,                                  !- Zone Heating Design Supply Air Temperature Difference {deltaC}
  0.0085,                                 !- Zone Cooling Design Supply Air Humidity Ratio {kgWater/kgDryAir}
  0.008,                                  !- Zone Heating Design Supply Air Humidity Ratio {kgWater/kgDryAir}
  Room_1420_b9536d43 DSOA Space List,     !- Design Specification Outdoor Air Object Name
  ,                                       !- Zone Heating Sizing Factor
  ,                                       !- Zone Cooling Sizing Factor
  DesignDay,                              !- Cooling Design Air Flow Method
  0,                                      !- Cooling Design Air Flow Rate {m3/s}
  0.000762,                               !- Cooling Minimum Air Flow per Zone Floor Area {m3/s-m2}
  0,                                      !- Cooling Minimum Air Flow {m3/s}
  0,                                      !- Cooling Minimum Air Flow Fraction
  DesignDay,                              !- Heating Design Air Flow Method
  0,                                      !- Heating Design Air Flow Rate {m3/s}
  0.002032,                               !- Heating Maximum Air Flow per Zone Floor Area {m3/s-m2}
  0.1415762,                              !- Heating Maximum Air Flow {m3/s}
  0.3,                                    !- Heating Maximum Air Flow Fraction
  ,                                       !- Design Specification Zone Air Distribution Object Name
  No,                                     !- Account for Dedicated Outdoor Air System
  ,                                       !- Dedicated Outdoor Air System Control Strategy
  ,                                       !- Dedicated Outdoor Air Low Setpoint Temperature for Design {C}
  ,                                       !- Dedicated Outdoor Air High Setpoint Temperature for Design {C}
  Sensible Load Only No Latent Load,      !- Zone Load Sizing Method
  HumidityRatioDifference,                !- Zone Latent Cooling Design Supply Air Humidity Ratio Input Method
  ,                                       !- Zone Dehumidification Design Supply Air Humidity Ratio {kgWater/kgDryAir}
  0.005,                                  !- Zone Cooling Design Supply Air Humidity Ratio Difference {kgWater/kgDryAir}
  HumidityRatioDifference,                !- Zone Latent Heating Design Supply Air Humidity Ratio Input Method
  ,                                       !- Zone Humidification Design Supply Air Humidity Ratio {kgWater/kgDryAir}
  0.005;                                  !- Zone Humidification Design Supply Air Humidity Ratio Difference {kgWater/kgDryAir}

DesignSpecification:OutdoorAir:SpaceList,
  Room_1420_b9536d43 DSOA Space List,     !- Name
  Room_1420_b9536d43_Space,               !- Space Name 1
  Ventilation_b96face6;                   !- Space Design Specification Outdoor Air Object Name 1

Zone,
  Room_1421_e7757f88,                     !- Name
  ,                                       !- Direction of Relative North {deg}
  0,                                      !- X Origin {m}
  0,                                      !- Y Origin {m}
  0,                                      !- Z Origin {m}
  ,                                       !- Type
  1,                                      !- Multiplier
  4.5,                                    !- Ceiling Height {m}
  1399.68,                                !- Volume {m3}
  ,                                       !- Floor Area {m2}
  ,                                       !- Zone Inside Convection Algorithm
  ,                                       !- Zone Outside Convection Algorithm
  Yes;                                    !- Part of Total Floor Area

Space,
  Room_1421_e7757f88_Space,               !- Name
  Room_1421_e7757f88,                     !- Zone Name
  ,                                       !- Ceiling Height {m}
  ,                                       !- Volume {m3}
  ,                                       !- Floor Area {m2}
  ProgramType_f9e2e425;                   !- Space Type

BuildingSurface:Detailed,
  Room_1421_e7757f88..Face0,              !- Name
  Floor,                                  !- Surface Type
  OpaqueConstruction_47cf3687,            !- Construction Name
  Room_1421_e7757f88,                     !- Zone Name
  Room_1421_e7757f88_Space,               !- Space Name
  Surface,                                !- Outside Boundary Condition
  Room_1419_3cec4092..Face1,              !- Outside Boundary Condition Object
  NoSun,                                  !- Sun Exposure
  NoWind,                                 !- Wind Exposure
  ,                                       !- View Factor to Ground
  ,                                       !- Number of Vertices
  93.6, 43.2, 9,                          !- X,Y,Z Vertex 1 {m}
  93.6, 28.8, 9,                          !- X,Y,Z Vertex 2 {m}
  72, 28.8, 9,                            !- X,Y,Z Vertex 3 {m}
  72, 43.2, 9;                            !- X,Y,Z Vertex 4 {m}

BuildingSurface:Detailed,
  Room_1421_e7757f88..Face1,              !- Name
  Ceiling,                                !- Surface Type
  OpaqueConstruction_47cf3687,            !- Construction Name
  Room_1421_e7757f88,                     !- Zone Name
  Room_1421_e7757f88_Space,               !- Space Name
  Surface,                                !- Outside Boundary Condition
  Room_1423_007f3b82..Face0,              !- Outside Boundary Condition Object
  NoSun,                                  !- Sun Exposure
  NoWind,                                 !- Wind Exposure
  ,                                       !- View Factor to Ground
  ,                                       !- Number of Vertices
  72, 43.2, 13.5,                         !- X,Y,Z Vertex 1 {m}
  72, 28.8, 13.5,                         !- X,Y,Z Vertex 2 {m}
  93.6, 28.8, 13.5,                       !- X,Y,Z Vertex 3 {m}
  93.6, 43.2, 13.5;                       !- X,Y,Z Vertex 4 {m}

BuildingSurface:Detailed,
  Room_1421_e7757f88..Face2,              !- Name
  Wall,                                   !- Surface Type
  OpaqueConstruction_47cf3687,            !- Construction Name
  Room_1421_e7757f88,                     !- Zone Name
  Room_1421_e7757f88_Space,               !- Space Name
  Outdoors,                               !- Outside Boundary Condition
  ,                                       !- Outside Boundary Condition Object
  SunExposed,                             !- Sun Exposure
  WindExposed,                            !- Wind Exposure
  ,                                       !- View Factor to Ground
  ,                                       !- Number of Vertices
  72, 28.8, 13.5,                         !- X,Y,Z Vertex 1 {m}
  72, 28.8, 9,                            !- X,Y,Z Vertex 2 {m}
  93.6, 28.8, 9,                          !- X,Y,Z Vertex 3 {m}
  93.6, 28.8, 13.5;                       !- X,Y,Z Vertex 4 {m}

BuildingSurface:Detailed,
  Room_1421_e7757f88..Face3,              !- Name
  Wall,                                   !- Surface Type
  OpaqueConstruction_47cf3687,            !- Construction Name
  Room_1421_e7757f88,                     !- Zone Name
  Room_1421_e7757f88_Space,               !- Space Name
  Outdoors,                               !- Outside Boundary Condition
  ,                                       !- Outside Boundary Condition Object
  SunExposed,                             !- Sun Exposure
  WindExposed,                            !- Wind Exposure
  ,                                       !- View Factor to Ground
  ,                                       !- Number of Vertices
  93.6, 43.2, 13.5,                       !- X,Y,Z Vertex 1 {m}
  93.6, 43.2, 9,                          !- X,Y,Z Vertex 2 {m}
  72, 43.2, 9,                            !- X,Y,Z Vertex 3 {m}
  72, 43.2, 13.5;                         !- X,Y,Z Vertex 4 {m}

BuildingSurface:Detailed,
  Room_1421_e7757f88..Face4,              !- Name
  Wall,                                   !- Surface Type
  OpaqueConstruction_47cf3687,            !- Construction Name
  Room_1421_e7757f88,                     !- Zone Name
  Room_1421_e7757f88_Space,               !- Space Name
  Outdoors,                               !- Outside Boundary Condition
  ,                                       !- Outside Boundary Condition Object
  SunExposed,                             !- Sun Exposure
  WindExposed,                            !- Wind Exposure
  ,                                       !- View Factor to Ground
  ,                                       !- Number of Vertices
  93.6, 28.8, 13.5,                       !- X,Y,Z Vertex 1 {m}
  93.6, 28.8, 9,                          !- X,Y,Z Vertex 2 {m}
  93.6, 43.2, 9,                          !- X,Y,Z Vertex 3 {m}
  93.6, 43.2, 13.5;                       !- X,Y,Z Vertex 4 {m}

BuildingSurface:Detailed,
  Room_1421_e7757f88..Face5,              !- Name
  Wall,                                   !- Surface Type
  OpaqueConstruction_47cf3687,            !- Construction Name
  Room_1421_e7757f88,                     !- Zone Name
  Room_1421_e7757f88_Space,               !- Space Name
  Outdoors,                               !- Outside Boundary Condition
  ,                                       !- Outside Boundary Condition Object
  SunExposed,                             !- Sun Exposure
  WindExposed,                            !- Wind Exposure
  ,                                       !- View Factor to Ground
  ,                                       !- Number of Vertices
  72, 43.2, 13.5,                         !- X,Y,Z Vertex 1 {m}
  72, 43.2, 9,                            !- X,Y,Z Vertex 2 {m}
  72, 28.8, 9,                            !- X,Y,Z Vertex 3 {m}
  72, 28.8, 13.5;                         !- X,Y,Z Vertex 4 {m}

ZoneControl:Thermostat,
  Room_1421_e7757f88 Thermostat,          !- Name
  Room_1421_e7757f88,                     !- Zone or ZoneList Name
  Room_1421_e7757f88 Thermostat Schedule, !- Control Type Schedule Name
  ThermostatSetpoint:DualSetpoint,        !- Control 1 Object Type
  Setpoint_2eba0a66 12,                   !- Control 1 Name
  ,                                       !- Control 2 Object Type
  ,                                       !- Control 2 Name
  ,                                       !- Control 3 Object Type
  ,                                       !- Control 3 Name
  ,                                       !- Control 4 Object Type
  ,                                       !- Control 4 Name
  0;                                      !- Temperature Difference Between Cutout And Setpoint {deltaC}

Schedule:Compact,
  Room_1421_e7757f88 Thermostat Schedule, !- Name
  Room_1421_e7757f88 Thermostat Schedule Type Limits, !- Schedule Type Limits Name
  Through: 12/31,                         !- Field 1
  For: AllDays,                           !- Field 2
  Until: 24:00,                           !- Field 3
  4;                                      !- Field 4

ScheduleTypeLimits,
  Room_1421_e7757f88 Thermostat Schedule Type Limits, !- Name
  0,                                      !- Lower Limit Value {BasedOnField A3}
  4,                                      !- Upper Limit Value {BasedOnField A3}
  DISCRETE;                               !- Numeric Type

ThermostatSetpoint:DualSetpoint,
  Setpoint_2eba0a66 12,                   !- Name
  ConstantSchedule_3ec00e82,              !- Heating Setpoint Temperature Schedule Name
  ConstantSchedule_b6307482;              !- Cooling Setpoint Temperature Schedule Name

ZoneHVAC:EquipmentConnections,
  Room_1421_e7757f88,                     !- Zone Name
  Room_1421_e7757f88 Equipment List,      !- Zone Conditioning Equipment List Name
  Room_1421_e7757f88 Inlet Node List,     !- Zone Air Inlet Node or NodeList Name
  Room_1421_e7757f88 Exhaust Node List,   !- Zone Air Exhaust Node or NodeList Name
  Node 13;                                !- Zone Air Node Name

NodeList,
  Room_1421_e7757f88 Inlet Node List,     !- Name
  Node 43;                                !- Node Name 1

NodeList,
  Room_1421_e7757f88 Exhaust Node List,   !- Name
  Node 42;                                !- Node Name 1

ZoneHVAC:IdealLoadsAirSystem,
  Room_1421_e7757f88 Ideal Loads Air System, !- Name
  ,                                       !- Availability Schedule Name
  Node 43,                                !- Zone Supply Air Node Name
  Node 42,                                !- Zone Exhaust Air Node Name
  ,                                       !- System Inlet Air Node Name
  50,                                     !- Maximum Heating Supply Air Temperature {C}
  13,                                     !- Minimum Cooling Supply Air Temperature {C}
  ,                                       !- Maximum Heating Supply Air Humidity Ratio {kgWater/kgDryAir}
  ,                                       !- Minimum Cooling Supply Air Humidity Ratio {kgWater/kgDryAir}
  LimitCapacity,                          !- Heating Limit
  ,                                       !- Maximum Heating Air Flow Rate {m3/s}
  Autosize,                               !- Maximum Sensible Heating Capacity {W}
  LimitFlowRateAndCapacity,               !- Cooling Limit
  Autosize,                               !- Maximum Cooling Air Flow Rate {m3/s}
  Autosize,                               !- Maximum Total Cooling Capacity {W}
  WeeklySchedule_2856ceac,                !- Heating Availability Schedule Name
  WeeklySchedule_2856ceac,                !- Cooling Availability Schedule Name
  None,                                   !- Dehumidification Control Type
  ,                                       !- Cooling Sensible Heat Ratio {dimensionless}
  ,                                       !- Humidification Control Type
  Ventilation_b96face6,                   !- Design Specification Outdoor Air Object Name
  ,                                       !- Outdoor Air Inlet Node Name
  None,                                   !- Demand Controlled Ventilation Type
  DifferentialDryBulb,                    !- Outdoor Air Economizer Type
  ,                                       !- Heat Recovery Type
  0,                                      !- Sensible Heat Recovery Effectiveness {dimensionless}
  0;                                      !- Latent Heat Recovery Effectiveness {dimensionless}

ZoneHVAC:EquipmentList,
  Room_1421_e7757f88 Equipment List,      !- Name
  SequentialLoad,                         !- Load Distribution Scheme
  ZoneHVAC:IdealLoadsAirSystem,           !- Zone Equipment Object Type 1
  Room_1421_e7757f88 Ideal Loads Air System, !- Zone Equipment Name 1
  1,                                      !- Zone Equipment Cooling Sequence 1
  1,                                      !- Zone Equipment Heating or No-Load Sequence 1
  ,                                       !- Zone Equipment Sequential Cooling Fraction Schedule Name 1
  ;                                       !- Zone Equipment Sequential Heating Fraction Schedule Name 1

Sizing:Zone,
  Room_1421_e7757f88,                     !- Zone or ZoneList Name
  SupplyAirTemperature,                   !- Zone Cooling Design Supply Air Temperature Input Method
  14,                                     !- Zone Cooling Design Supply Air Temperature {C}
  11.11,                                  !- Zone Cooling Design Supply Air Temperature Difference {deltaC}
  SupplyAirTemperature,                   !- Zone Heating Design Supply Air Temperature Input Method
  40,                                     !- Zone Heating Design Supply Air Temperature {C}
  11.11,                                  !- Zone Heating Design Supply Air Temperature Difference {deltaC}
  0.0085,                                 !- Zone Cooling Design Supply Air Humidity Ratio {kgWater/kgDryAir}
  0.008,                                  !- Zone Heating Design Supply Air Humidity Ratio {kgWater/kgDryAir}
  Room_1421_e7757f88 DSOA Space List,     !- Design Specification Outdoor Air Object Name
  ,                                       !- Zone Heating Sizing Factor
  ,                                       !- Zone Cooling Sizing Factor
  DesignDay,                              !- Cooling Design Air Flow Method
  0,                                      !- Cooling Design Air Flow Rate {m3/s}
  0.000762,                               !- Cooling Minimum Air Flow per Zone Floor Area {m3/s-m2}
  0,                                      !- Cooling Minimum Air Flow {m3/s}
  0,                                      !- Cooling Minimum Air Flow Fraction
  DesignDay,                              !- Heating Design Air Flow Method
  0,                                      !- Heating Design Air Flow Rate {m3/s}
  0.002032,                               !- Heating Maximum Air Flow per Zone Floor Area {m3/s-m2}
  0.1415762,                              !- Heating Maximum Air Flow {m3/s}
  0.3,                                    !- Heating Maximum Air Flow Fraction
  ,                                       !- Design Specification Zone Air Distribution Object Name
  No,                                     !- Account for Dedicated Outdoor Air System
  ,                                       !- Dedicated Outdoor Air System Control Strategy
  ,                                       !- Dedicated Outdoor Air Low Setpoint Temperature for Design {C}
  ,                                       !- Dedicated Outdoor Air High Setpoint Temperature for Design {C}
  Sensible Load Only No Latent Load,      !- Zone Load Sizing Method
  HumidityRatioDifference,                !- Zone Latent Cooling Design Supply Air Humidity Ratio Input Method
  ,                                       !- Zone Dehumidification Design Supply Air Humidity Ratio {kgWater/kgDryAir}
  0.005,                                  !- Zone Cooling Design Supply Air Humidity Ratio Difference {kgWater/kgDryAir}
  HumidityRatioDifference,                !- Zone Latent Heating Design Supply Air Humidity Ratio Input Method
  ,                                       !- Zone Humidification Design Supply Air Humidity Ratio {kgWater/kgDryAir}
  0.005;                                  !- Zone Humidification Design Supply Air Humidity Ratio Difference {kgWater/kgDryAir}

DesignSpecification:OutdoorAir:SpaceList,
  Room_1421_e7757f88 DSOA Space List,     !- Name
  Room_1421_e7757f88_Space,               !- Space Name 1
  Ventilation_b96face6;                   !- Space Design Specification Outdoor Air Object Name 1

Zone,
  Room_1422_86173f66,                     !- Name
  ,                                       !- Direction of Relative North {deg}
  0,                                      !- X Origin {m}
  0,                                      !- Y Origin {m}
  0,                                      !- Z Origin {m}
  ,                                       !- Type
  1,                                      !- Multiplier
  4.50000000000001,                       !- Ceiling Height {m}
  1399.68,                                !- Volume {m3}
  ,                                       !- Floor Area {m2}
  ,                                       !- Zone Inside Convection Algorithm
  ,                                       !- Zone Outside Convection Algorithm
  Yes;                                    !- Part of Total Floor Area

Space,
  Room_1422_86173f66_Space,               !- Name
  Room_1422_86173f66,                     !- Zone Name
  ,                                       !- Ceiling Height {m}
  ,                                       !- Volume {m3}
  ,                                       !- Floor Area {m2}
  ProgramType_f9e2e425;                   !- Space Type

BuildingSurface:Detailed,
  Room_1422_86173f66..Face0,              !- Name
  Floor,                                  !- Surface Type
  OpaqueConstruction_47cf3687,            !- Construction Name
  Room_1422_86173f66,                     !- Zone Name
  Room_1422_86173f66_Space,               !- Space Name
  Surface,                                !- Outside Boundary Condition
  Room_1420_b9536d43..Face1,              !- Outside Boundary Condition Object
  NoSun,                                  !- Sun Exposure
  NoWind,                                 !- Wind Exposure
  ,                                       !- View Factor to Ground
  ,                                       !- Number of Vertices
  36, 43.2, 13.5,                         !- X,Y,Z Vertex 1 {m}
  36, 28.8, 13.5,                         !- X,Y,Z Vertex 2 {m}
  14.4, 28.8, 13.5,                       !- X,Y,Z Vertex 3 {m}
  14.4, 43.2, 13.5;                       !- X,Y,Z Vertex 4 {m}

BuildingSurface:Detailed,
  Room_1422_86173f66..Face1,              !- Name
  Ceiling,                                !- Surface Type
  OpaqueConstruction_47cf3687,            !- Construction Name
  Room_1422_86173f66,                     !- Zone Name
  Room_1422_86173f66_Space,               !- Space Name
  Surface,                                !- Outside Boundary Condition
  Room_1424_be2a7315..Face0,              !- Outside Boundary Condition Object
  NoSun,                                  !- Sun Exposure
  NoWind,                                 !- Wind Exposure
  ,                                       !- View Factor to Ground
  ,                                       !- Number of Vertices
  14.4, 43.2, 18,                         !- X,Y,Z Vertex 1 {m}
  14.4, 28.8, 18,                         !- X,Y,Z Vertex 2 {m}
  36, 28.8, 18,                           !- X,Y,Z Vertex 3 {m}
  36, 43.2, 18;                           !- X,Y,Z Vertex 4 {m}

BuildingSurface:Detailed,
  Room_1422_86173f66..Face2,              !- Name
  Wall,                                   !- Surface Type
  OpaqueConstruction_47cf3687,            !- Construction Name
  Room_1422_86173f66,                     !- Zone Name
  Room_1422_86173f66_Space,               !- Space Name
  Outdoors,                               !- Outside Boundary Condition
  ,                                       !- Outside Boundary Condition Object
  SunExposed,                             !- Sun Exposure
  WindExposed,                            !- Wind Exposure
  ,                                       !- View Factor to Ground
  ,                                       !- Number of Vertices
  36, 43.2, 18,                           !- X,Y,Z Vertex 1 {m}
  36, 43.2, 13.5,                         !- X,Y,Z Vertex 2 {m}
  14.4, 43.2, 13.5,                       !- X,Y,Z Vertex 3 {m}
  14.4, 43.2, 18;                         !- X,Y,Z Vertex 4 {m}

BuildingSurface:Detailed,
  Room_1422_86173f66..Face3,              !- Name
  Wall,                                   !- Surface Type
  OpaqueConstruction_47cf3687,            !- Construction Name
  Room_1422_86173f66,                     !- Zone Name
  Room_1422_86173f66_Space,               !- Space Name
  Surface,                                !- Outside Boundary Condition
  Room_1414_dce579f1..Face16,             !- Outside Boundary Condition Object
  NoSun,                                  !- Sun Exposure
  NoWind,                                 !- Wind Exposure
  ,                                       !- View Factor to Ground
  ,                                       !- Number of Vertices
  14.4, 28.8, 18,                         !- X,Y,Z Vertex 1 {m}
  14.4, 28.8, 13.5,                       !- X,Y,Z Vertex 2 {m}
  36, 28.8, 13.5,                         !- X,Y,Z Vertex 3 {m}
  36, 28.8, 18;                           !- X,Y,Z Vertex 4 {m}

FenestrationSurface:Detailed,
  Ajd_Aperture_709ff042,                  !- Name
  Window,                                 !- Surface Type
  WindowConstruction_1dfe9b5d,            !- Construction Name
  Room_1422_86173f66..Face3,              !- Building Surface Name
  Aperture_709ff042,                      !- Outside Boundary Condition Object
  ,                                       !- View Factor to Ground
  ,                                       !- Frame and Divider Name
  ,                                       !- Multiplier
  ,                                       !- Number of Vertices
  14.5, 28.8, 15.8,                       !- X,Y,Z Vertex 1 {m}
  14.5, 28.8, 13.7,                       !- X,Y,Z Vertex 2 {m}
  15.3, 28.8, 13.7,                       !- X,Y,Z Vertex 3 {m}
  15.3, 28.8, 15.8;                       !- X,Y,Z Vertex 4 {m}

FenestrationSurface:Detailed,
  Ajd_Aperture_98a8fd06,                  !- Name
  Window,                                 !- Surface Type
  WindowConstruction_1dfe9b5d,            !- Construction Name
  Room_1422_86173f66..Face3,              !- Building Surface Name
  Aperture_98a8fd06,                      !- Outside Boundary Condition Object
  ,                                       !- View Factor to Ground
  ,                                       !- Frame and Divider Name
  ,                                       !- Multiplier
  ,                                       !- Number of Vertices
  28.9, 28.8, 15.8,                       !- X,Y,Z Vertex 1 {m}
  28.9, 28.8, 13.7,                       !- X,Y,Z Vertex 2 {m}
  29.7, 28.8, 13.7,                       !- X,Y,Z Vertex 3 {m}
  29.7, 28.8, 15.8;                       !- X,Y,Z Vertex 4 {m}

FenestrationSurface:Detailed,
  Ajd_Aperture_a0274559,                  !- Name
  Window,                                 !- Surface Type
  WindowConstruction_1dfe9b5d,            !- Construction Name
  Room_1422_86173f66..Face3,              !- Building Surface Name
  Aperture_a0274559,                      !- Outside Boundary Condition Object
  ,                                       !- View Factor to Ground
  ,                                       !- Frame and Divider Name
  ,                                       !- Multiplier
  ,                                       !- Number of Vertices
  20.6, 28.8, 15.8,                       !- X,Y,Z Vertex 1 {m}
  20.6, 28.8, 13.7,                       !- X,Y,Z Vertex 2 {m}
  21.5, 28.8, 13.7,                       !- X,Y,Z Vertex 3 {m}
  21.5, 28.8, 15.8;                       !- X,Y,Z Vertex 4 {m}

FenestrationSurface:Detailed,
  Ajd_Aperture_a424fbd2,                  !- Name
  Window,                                 !- Surface Type
  WindowConstruction_1dfe9b5d,            !- Construction Name
  Room_1422_86173f66..Face3,              !- Building Surface Name
  Aperture_a424fbd2,                      !- Outside Boundary Condition Object
  ,                                       !- View Factor to Ground
  ,                                       !- Frame and Divider Name
  ,                                       !- Multiplier
  ,                                       !- Number of Vertices
  27.8, 28.8, 15.8,                       !- X,Y,Z Vertex 1 {m}
  27.8, 28.8, 13.7,                       !- X,Y,Z Vertex 2 {m}
  28.7, 28.8, 13.7,                       !- X,Y,Z Vertex 3 {m}
  28.7, 28.8, 15.8;                       !- X,Y,Z Vertex 4 {m}

FenestrationSurface:Detailed,
  Ajd_Aperture_d766b619,                  !- Name
  Window,                                 !- Surface Type
  WindowConstruction_1dfe9b5d,            !- Construction Name
  Room_1422_86173f66..Face3,              !- Building Surface Name
  Aperture_d766b619,                      !- Outside Boundary Condition Object
  ,                                       !- View Factor to Ground
  ,                                       !- Frame and Divider Name
  ,                                       !- Multiplier
  ,                                       !- Number of Vertices
  21.7, 28.8, 15.8,                       !- X,Y,Z Vertex 1 {m}
  21.7, 28.8, 13.7,                       !- X,Y,Z Vertex 2 {m}
  22.5, 28.8, 13.7,                       !- X,Y,Z Vertex 3 {m}
  22.5, 28.8, 15.8;                       !- X,Y,Z Vertex 4 {m}

FenestrationSurface:Detailed,
  Ajd_Aperture_ec32b2c3,                  !- Name
  Window,                                 !- Surface Type
  WindowConstruction_1dfe9b5d,            !- Construction Name
  Room_1422_86173f66..Face3,              !- Building Surface Name
  Aperture_ec32b2c3,                      !- Outside Boundary Condition Object
  ,                                       !- View Factor to Ground
  ,                                       !- Frame and Divider Name
  ,                                       !- Multiplier
  ,                                       !- Number of Vertices
  35, 28.8, 15.8,                         !- X,Y,Z Vertex 1 {m}
  35, 28.8, 13.7,                         !- X,Y,Z Vertex 2 {m}
  35.9, 28.8, 13.7,                       !- X,Y,Z Vertex 3 {m}
  35.9, 28.8, 15.8;                       !- X,Y,Z Vertex 4 {m}

BuildingSurface:Detailed,
  Room_1422_86173f66..Face4,              !- Name
  Wall,                                   !- Surface Type
  OpaqueConstruction_47cf3687,            !- Construction Name
  Room_1422_86173f66,                     !- Zone Name
  Room_1422_86173f66_Space,               !- Space Name
  Outdoors,                               !- Outside Boundary Condition
  ,                                       !- Outside Boundary Condition Object
  SunExposed,                             !- Sun Exposure
  WindExposed,                            !- Wind Exposure
  ,                                       !- View Factor to Ground
  ,                                       !- Number of Vertices
  14.4, 43.2, 18,                         !- X,Y,Z Vertex 1 {m}
  14.4, 43.2, 13.5,                       !- X,Y,Z Vertex 2 {m}
  14.4, 28.8, 13.5,                       !- X,Y,Z Vertex 3 {m}
  14.4, 28.8, 18;                         !- X,Y,Z Vertex 4 {m}

BuildingSurface:Detailed,
  Room_1422_86173f66..Face5,              !- Name
  Wall,                                   !- Surface Type
  OpaqueConstruction_47cf3687,            !- Construction Name
  Room_1422_86173f66,                     !- Zone Name
  Room_1422_86173f66_Space,               !- Space Name
  Outdoors,                               !- Outside Boundary Condition
  ,                                       !- Outside Boundary Condition Object
  SunExposed,                             !- Sun Exposure
  WindExposed,                            !- Wind Exposure
  ,                                       !- View Factor to Ground
  ,                                       !- Number of Vertices
  36, 28.8, 18,                           !- X,Y,Z Vertex 1 {m}
  36, 28.8, 13.5,                         !- X,Y,Z Vertex 2 {m}
  36, 43.2, 13.5,                         !- X,Y,Z Vertex 3 {m}
  36, 43.2, 18;                           !- X,Y,Z Vertex 4 {m}

ZoneControl:Thermostat,
  Room_1422_86173f66 Thermostat,          !- Name
  Room_1422_86173f66,                     !- Zone or ZoneList Name
  Room_1422_86173f66 Thermostat Schedule, !- Control Type Schedule Name
  ThermostatSetpoint:DualSetpoint,        !- Control 1 Object Type
  Setpoint_2eba0a66 13,                   !- Control 1 Name
  ,                                       !- Control 2 Object Type
  ,                                       !- Control 2 Name
  ,                                       !- Control 3 Object Type
  ,                                       !- Control 3 Name
  ,                                       !- Control 4 Object Type
  ,                                       !- Control 4 Name
  0;                                      !- Temperature Difference Between Cutout And Setpoint {deltaC}

Schedule:Compact,
  Room_1422_86173f66 Thermostat Schedule, !- Name
  Room_1422_86173f66 Thermostat Schedule Type Limits, !- Schedule Type Limits Name
  Through: 12/31,                         !- Field 1
  For: AllDays,                           !- Field 2
  Until: 24:00,                           !- Field 3
  4;                                      !- Field 4

ScheduleTypeLimits,
  Room_1422_86173f66 Thermostat Schedule Type Limits, !- Name
  0,                                      !- Lower Limit Value {BasedOnField A3}
  4,                                      !- Upper Limit Value {BasedOnField A3}
  DISCRETE;                               !- Numeric Type

ThermostatSetpoint:DualSetpoint,
  Setpoint_2eba0a66 13,                   !- Name
  ConstantSchedule_3ec00e82,              !- Heating Setpoint Temperature Schedule Name
  ConstantSchedule_b6307482;              !- Cooling Setpoint Temperature Schedule Name

ZoneHVAC:EquipmentConnections,
  Room_1422_86173f66,                     !- Zone Name
  Room_1422_86173f66 Equipment List,      !- Zone Conditioning Equipment List Name
  Room_1422_86173f66 Inlet Node List,     !- Zone Air Inlet Node or NodeList Name
  Room_1422_86173f66 Exhaust Node List,   !- Zone Air Exhaust Node or NodeList Name
  Node 14;                                !- Zone Air Node Name

NodeList,
  Room_1422_86173f66 Inlet Node List,     !- Name
  Node 45;                                !- Node Name 1

NodeList,
  Room_1422_86173f66 Exhaust Node List,   !- Name
  Node 44;                                !- Node Name 1

ZoneHVAC:IdealLoadsAirSystem,
  Room_1422_86173f66 Ideal Loads Air System, !- Name
  ,                                       !- Availability Schedule Name
  Node 45,                                !- Zone Supply Air Node Name
  Node 44,                                !- Zone Exhaust Air Node Name
  ,                                       !- System Inlet Air Node Name
  50,                                     !- Maximum Heating Supply Air Temperature {C}
  13,                                     !- Minimum Cooling Supply Air Temperature {C}
  ,                                       !- Maximum Heating Supply Air Humidity Ratio {kgWater/kgDryAir}
  ,                                       !- Minimum Cooling Supply Air Humidity Ratio {kgWater/kgDryAir}
  LimitCapacity,                          !- Heating Limit
  ,                                       !- Maximum Heating Air Flow Rate {m3/s}
  Autosize,                               !- Maximum Sensible Heating Capacity {W}
  LimitFlowRateAndCapacity,               !- Cooling Limit
  Autosize,                               !- Maximum Cooling Air Flow Rate {m3/s}
  Autosize,                               !- Maximum Total Cooling Capacity {W}
  WeeklySchedule_2856ceac,                !- Heating Availability Schedule Name
  WeeklySchedule_2856ceac,                !- Cooling Availability Schedule Name
  None,                                   !- Dehumidification Control Type
  ,                                       !- Cooling Sensible Heat Ratio {dimensionless}
  ,                                       !- Humidification Control Type
  Ventilation_b96face6,                   !- Design Specification Outdoor Air Object Name
  ,                                       !- Outdoor Air Inlet Node Name
  None,                                   !- Demand Controlled Ventilation Type
  DifferentialDryBulb,                    !- Outdoor Air Economizer Type
  ,                                       !- Heat Recovery Type
  0,                                      !- Sensible Heat Recovery Effectiveness {dimensionless}
  0;                                      !- Latent Heat Recovery Effectiveness {dimensionless}

ZoneHVAC:EquipmentList,
  Room_1422_86173f66 Equipment List,      !- Name
  SequentialLoad,                         !- Load Distribution Scheme
  ZoneHVAC:IdealLoadsAirSystem,           !- Zone Equipment Object Type 1
  Room_1422_86173f66 Ideal Loads Air System, !- Zone Equipment Name 1
  1,                                      !- Zone Equipment Cooling Sequence 1
  1,                                      !- Zone Equipment Heating or No-Load Sequence 1
  ,                                       !- Zone Equipment Sequential Cooling Fraction Schedule Name 1
  ;                                       !- Zone Equipment Sequential Heating Fraction Schedule Name 1

Sizing:Zone,
  Room_1422_86173f66,                     !- Zone or ZoneList Name
  SupplyAirTemperature,                   !- Zone Cooling Design Supply Air Temperature Input Method
  14,                                     !- Zone Cooling Design Supply Air Temperature {C}
  11.11,                                  !- Zone Cooling Design Supply Air Temperature Difference {deltaC}
  SupplyAirTemperature,                   !- Zone Heating Design Supply Air Temperature Input Method
  40,                                     !- Zone Heating Design Supply Air Temperature {C}
  11.11,                                  !- Zone Heating Design Supply Air Temperature Difference {deltaC}
  0.0085,                                 !- Zone Cooling Design Supply Air Humidity Ratio {kgWater/kgDryAir}
  0.008,                                  !- Zone Heating Design Supply Air Humidity Ratio {kgWater/kgDryAir}
  Room_1422_86173f66 DSOA Space List,     !- Design Specification Outdoor Air Object Name
  ,                                       !- Zone Heating Sizing Factor
  ,                                       !- Zone Cooling Sizing Factor
  DesignDay,                              !- Cooling Design Air Flow Method
  0,                                      !- Cooling Design Air Flow Rate {m3/s}
  0.000762,                               !- Cooling Minimum Air Flow per Zone Floor Area {m3/s-m2}
  0,                                      !- Cooling Minimum Air Flow {m3/s}
  0,                                      !- Cooling Minimum Air Flow Fraction
  DesignDay,                              !- Heating Design Air Flow Method
  0,                                      !- Heating Design Air Flow Rate {m3/s}
  0.002032,                               !- Heating Maximum Air Flow per Zone Floor Area {m3/s-m2}
  0.1415762,                              !- Heating Maximum Air Flow {m3/s}
  0.3,                                    !- Heating Maximum Air Flow Fraction
  ,                                       !- Design Specification Zone Air Distribution Object Name
  No,                                     !- Account for Dedicated Outdoor Air System
  ,                                       !- Dedicated Outdoor Air System Control Strategy
  ,                                       !- Dedicated Outdoor Air Low Setpoint Temperature for Design {C}
  ,                                       !- Dedicated Outdoor Air High Setpoint Temperature for Design {C}
  Sensible Load Only No Latent Load,      !- Zone Load Sizing Method
  HumidityRatioDifference,                !- Zone Latent Cooling Design Supply Air Humidity Ratio Input Method
  ,                                       !- Zone Dehumidification Design Supply Air Humidity Ratio {kgWater/kgDryAir}
  0.005,                                  !- Zone Cooling Design Supply Air Humidity Ratio Difference {kgWater/kgDryAir}
  HumidityRatioDifference,                !- Zone Latent Heating Design Supply Air Humidity Ratio Input Method
  ,                                       !- Zone Humidification Design Supply Air Humidity Ratio {kgWater/kgDryAir}
  0.005;                                  !- Zone Humidification Design Supply Air Humidity Ratio Difference {kgWater/kgDryAir}

DesignSpecification:OutdoorAir:SpaceList,
  Room_1422_86173f66 DSOA Space List,     !- Name
  Room_1422_86173f66_Space,               !- Space Name 1
  Ventilation_b96face6;                   !- Space Design Specification Outdoor Air Object Name 1

Zone,
  Room_1423_007f3b82,                     !- Name
  ,                                       !- Direction of Relative North {deg}
  0,                                      !- X Origin {m}
  0,                                      !- Y Origin {m}
  0,                                      !- Z Origin {m}
  ,                                       !- Type
  1,                                      !- Multiplier
  4.50000000000001,                       !- Ceiling Height {m}
  1399.68,                                !- Volume {m3}
  ,                                       !- Floor Area {m2}
  ,                                       !- Zone Inside Convection Algorithm
  ,                                       !- Zone Outside Convection Algorithm
  Yes;                                    !- Part of Total Floor Area

Space,
  Room_1423_007f3b82_Space,               !- Name
  Room_1423_007f3b82,                     !- Zone Name
  ,                                       !- Ceiling Height {m}
  ,                                       !- Volume {m3}
  ,                                       !- Floor Area {m2}
  ProgramType_f9e2e425;                   !- Space Type

BuildingSurface:Detailed,
  Room_1423_007f3b82..Face0,              !- Name
  Floor,                                  !- Surface Type
  OpaqueConstruction_47cf3687,            !- Construction Name
  Room_1423_007f3b82,                     !- Zone Name
  Room_1423_007f3b82_Space,               !- Space Name
  Surface,                                !- Outside Boundary Condition
  Room_1421_e7757f88..Face1,              !- Outside Boundary Condition Object
  NoSun,                                  !- Sun Exposure
  NoWind,                                 !- Wind Exposure
  ,                                       !- View Factor to Ground
  ,                                       !- Number of Vertices
  93.6, 43.2, 13.5,                       !- X,Y,Z Vertex 1 {m}
  93.6, 28.8, 13.5,                       !- X,Y,Z Vertex 2 {m}
  72, 28.8, 13.5,                         !- X,Y,Z Vertex 3 {m}
  72, 43.2, 13.5;                         !- X,Y,Z Vertex 4 {m}

BuildingSurface:Detailed,
  Room_1423_007f3b82..Face1,              !- Name
  Ceiling,                                !- Surface Type
  OpaqueConstruction_47cf3687,            !- Construction Name
  Room_1423_007f3b82,                     !- Zone Name
  Room_1423_007f3b82_Space,               !- Space Name
  Surface,                                !- Outside Boundary Condition
  Room_1425_fad10760..Face0,              !- Outside Boundary Condition Object
  NoSun,                                  !- Sun Exposure
  NoWind,                                 !- Wind Exposure
  ,                                       !- View Factor to Ground
  ,                                       !- Number of Vertices
  72, 43.2, 18,                           !- X,Y,Z Vertex 1 {m}
  72, 28.8, 18,                           !- X,Y,Z Vertex 2 {m}
  93.6, 28.8, 18,                         !- X,Y,Z Vertex 3 {m}
  93.6, 43.2, 18;                         !- X,Y,Z Vertex 4 {m}

BuildingSurface:Detailed,
  Room_1423_007f3b82..Face2,              !- Name
  Wall,                                   !- Surface Type
  OpaqueConstruction_47cf3687,            !- Construction Name
  Room_1423_007f3b82,                     !- Zone Name
  Room_1423_007f3b82_Space,               !- Space Name
  Outdoors,                               !- Outside Boundary Condition
  ,                                       !- Outside Boundary Condition Object
  SunExposed,                             !- Sun Exposure
  WindExposed,                            !- Wind Exposure
  ,                                       !- View Factor to Ground
  ,                                       !- Number of Vertices
  93.6, 43.2, 18,                         !- X,Y,Z Vertex 1 {m}
  93.6, 43.2, 13.5,                       !- X,Y,Z Vertex 2 {m}
  72, 43.2, 13.5,                         !- X,Y,Z Vertex 3 {m}
  72, 43.2, 18;                           !- X,Y,Z Vertex 4 {m}

BuildingSurface:Detailed,
  Room_1423_007f3b82..Face3,              !- Name
  Wall,                                   !- Surface Type
  OpaqueConstruction_47cf3687,            !- Construction Name
  Room_1423_007f3b82,                     !- Zone Name
  Room_1423_007f3b82_Space,               !- Space Name
  Surface,                                !- Outside Boundary Condition
  Room_1414_dce579f1..Face15,             !- Outside Boundary Condition Object
  NoSun,                                  !- Sun Exposure
  NoWind,                                 !- Wind Exposure
  ,                                       !- View Factor to Ground
  ,                                       !- Number of Vertices
  72, 28.8, 18,                           !- X,Y,Z Vertex 1 {m}
  72, 28.8, 13.5,                         !- X,Y,Z Vertex 2 {m}
  93.6, 28.8, 13.5,                       !- X,Y,Z Vertex 3 {m}
  93.6, 28.8, 18;                         !- X,Y,Z Vertex 4 {m}

FenestrationSurface:Detailed,
  Aperture_0525ddbe,                      !- Name
  Window,                                 !- Surface Type
  WindowConstruction_1dfe9b5d,            !- Construction Name
  Room_1423_007f3b82..Face3,              !- Building Surface Name
  Ajd_Aperture_0525ddbe,                  !- Outside Boundary Condition Object
  ,                                       !- View Factor to Ground
  ,                                       !- Frame and Divider Name
  ,                                       !- Multiplier
  ,                                       !- Number of Vertices
  72.1, 28.8, 15.8,                       !- X,Y,Z Vertex 1 {m}
  72.1, 28.8, 13.7,                       !- X,Y,Z Vertex 2 {m}
  72.9, 28.8, 13.7,                       !- X,Y,Z Vertex 3 {m}
  72.9, 28.8, 15.8;                       !- X,Y,Z Vertex 4 {m}

FenestrationSurface:Detailed,
  Aperture_1f44dc8a,                      !- Name
  Window,                                 !- Surface Type
  WindowConstruction_1dfe9b5d,            !- Construction Name
  Room_1423_007f3b82..Face3,              !- Building Surface Name
  Ajd_Aperture_1f44dc8a,                  !- Outside Boundary Condition Object
  ,                                       !- View Factor to Ground
  ,                                       !- Frame and Divider Name
  ,                                       !- Multiplier
  ,                                       !- Number of Vertices
  79.3, 28.8, 15.8,                       !- X,Y,Z Vertex 1 {m}
  79.3, 28.8, 13.7,                       !- X,Y,Z Vertex 2 {m}
  80.1, 28.8, 13.7,                       !- X,Y,Z Vertex 3 {m}
  80.1, 28.8, 15.8;                       !- X,Y,Z Vertex 4 {m}

FenestrationSurface:Detailed,
  Aperture_3c755504,                      !- Name
  Window,                                 !- Surface Type
  WindowConstruction_1dfe9b5d,            !- Construction Name
  Room_1423_007f3b82..Face3,              !- Building Surface Name
  Ajd_Aperture_3c755504,                  !- Outside Boundary Condition Object
  ,                                       !- View Factor to Ground
  ,                                       !- Frame and Divider Name
  ,                                       !- Multiplier
  ,                                       !- Number of Vertices
  85.4, 28.8, 15.8,                       !- X,Y,Z Vertex 1 {m}
  85.4, 28.8, 13.7,                       !- X,Y,Z Vertex 2 {m}
  86.3, 28.8, 13.7,                       !- X,Y,Z Vertex 3 {m}
  86.3, 28.8, 15.8;                       !- X,Y,Z Vertex 4 {m}

FenestrationSurface:Detailed,
  Aperture_71716395,                      !- Name
  Window,                                 !- Surface Type
  WindowConstruction_1dfe9b5d,            !- Construction Name
  Room_1423_007f3b82..Face3,              !- Building Surface Name
  Ajd_Aperture_71716395,                  !- Outside Boundary Condition Object
  ,                                       !- View Factor to Ground
  ,                                       !- Frame and Divider Name
  ,                                       !- Multiplier
  ,                                       !- Number of Vertices
  86.5, 28.8, 15.8,                       !- X,Y,Z Vertex 1 {m}
  86.5, 28.8, 13.7,                       !- X,Y,Z Vertex 2 {m}
  87.3, 28.8, 13.7,                       !- X,Y,Z Vertex 3 {m}
  87.3, 28.8, 15.8;                       !- X,Y,Z Vertex 4 {m}

FenestrationSurface:Detailed,
  Aperture_8acdaf3c,                      !- Name
  Window,                                 !- Surface Type
  WindowConstruction_1dfe9b5d,            !- Construction Name
  Room_1423_007f3b82..Face3,              !- Building Surface Name
  Ajd_Aperture_8acdaf3c,                  !- Outside Boundary Condition Object
  ,                                       !- View Factor to Ground
  ,                                       !- Frame and Divider Name
  ,                                       !- Multiplier
  ,                                       !- Number of Vertices
  78.2, 28.8, 15.8,                       !- X,Y,Z Vertex 1 {m}
  78.2, 28.8, 13.7,                       !- X,Y,Z Vertex 2 {m}
  79.1, 28.8, 13.7,                       !- X,Y,Z Vertex 3 {m}
  79.1, 28.8, 15.8;                       !- X,Y,Z Vertex 4 {m}

FenestrationSurface:Detailed,
  Aperture_beaa9252,                      !- Name
  Window,                                 !- Surface Type
  WindowConstruction_1dfe9b5d,            !- Construction Name
  Room_1423_007f3b82..Face3,              !- Building Surface Name
  Ajd_Aperture_beaa9252,                  !- Outside Boundary Condition Object
  ,                                       !- View Factor to Ground
  ,                                       !- Frame and Divider Name
  ,                                       !- Multiplier
  ,                                       !- Number of Vertices
  92.6, 28.8, 15.8,                       !- X,Y,Z Vertex 1 {m}
  92.6, 28.8, 13.7,                       !- X,Y,Z Vertex 2 {m}
  93.5, 28.8, 13.7,                       !- X,Y,Z Vertex 3 {m}
  93.5, 28.8, 15.8;                       !- X,Y,Z Vertex 4 {m}

BuildingSurface:Detailed,
  Room_1423_007f3b82..Face4,              !- Name
  Wall,                                   !- Surface Type
  OpaqueConstruction_47cf3687,            !- Construction Name
  Room_1423_007f3b82,                     !- Zone Name
  Room_1423_007f3b82_Space,               !- Space Name
  Surface,                                !- Outside Boundary Condition
  Room_1414_dce579f1..Face18,             !- Outside Boundary Condition Object
  NoSun,                                  !- Sun Exposure
  NoWind,                                 !- Wind Exposure
  ,                                       !- View Factor to Ground
  ,                                       !- Number of Vertices
  72, 43.2, 18,                           !- X,Y,Z Vertex 1 {m}
  72, 43.2, 13.5,                         !- X,Y,Z Vertex 2 {m}
  72, 28.8, 13.5,                         !- X,Y,Z Vertex 3 {m}
  72, 28.8, 18;                           !- X,Y,Z Vertex 4 {m}

FenestrationSurface:Detailed,
  Aperture_366df5b2,                      !- Name
  Window,                                 !- Surface Type
  WindowConstruction_1dfe9b5d,            !- Construction Name
  Room_1423_007f3b82..Face4,              !- Building Surface Name
  Ajd_Aperture_366df5b2,                  !- Outside Boundary Condition Object
  ,                                       !- View Factor to Ground
  ,                                       !- Frame and Divider Name
  ,                                       !- Multiplier
  ,                                       !- Number of Vertices
  72, 29.7, 15.8,                         !- X,Y,Z Vertex 1 {m}
  72, 29.7, 13.7,                         !- X,Y,Z Vertex 2 {m}
  72, 28.9, 13.7,                         !- X,Y,Z Vertex 3 {m}
  72, 28.9, 15.8;                         !- X,Y,Z Vertex 4 {m}

FenestrationSurface:Detailed,
  Aperture_4a29aad6,                      !- Name
  Window,                                 !- Surface Type
  WindowConstruction_1dfe9b5d,            !- Construction Name
  Room_1423_007f3b82..Face4,              !- Building Surface Name
  Ajd_Aperture_4a29aad6,                  !- Outside Boundary Condition Object
  ,                                       !- View Factor to Ground
  ,                                       !- Frame and Divider Name
  ,                                       !- Multiplier
  ,                                       !- Number of Vertices
  72, 43.1, 15.8,                         !- X,Y,Z Vertex 1 {m}
  72, 43.1, 13.7,                         !- X,Y,Z Vertex 2 {m}
  72, 42.2, 13.7,                         !- X,Y,Z Vertex 3 {m}
  72, 42.2, 15.8;                         !- X,Y,Z Vertex 4 {m}

FenestrationSurface:Detailed,
  Aperture_5b9b9e46,                      !- Name
  Window,                                 !- Surface Type
  WindowConstruction_1dfe9b5d,            !- Construction Name
  Room_1423_007f3b82..Face4,              !- Building Surface Name
  Ajd_Aperture_5b9b9e46,                  !- Outside Boundary Condition Object
  ,                                       !- View Factor to Ground
  ,                                       !- Frame and Divider Name
  ,                                       !- Multiplier
  ,                                       !- Number of Vertices
  72, 36.9, 15.8,                         !- X,Y,Z Vertex 1 {m}
  72, 36.9, 13.7,                         !- X,Y,Z Vertex 2 {m}
  72, 36.1, 13.7,                         !- X,Y,Z Vertex 3 {m}
  72, 36.1, 15.8;                         !- X,Y,Z Vertex 4 {m}

FenestrationSurface:Detailed,
  Aperture_87e6690d,                      !- Name
  Window,                                 !- Surface Type
  WindowConstruction_1dfe9b5d,            !- Construction Name
  Room_1423_007f3b82..Face4,              !- Building Surface Name
  Ajd_Aperture_87e6690d,                  !- Outside Boundary Condition Object
  ,                                       !- View Factor to Ground
  ,                                       !- Frame and Divider Name
  ,                                       !- Multiplier
  ,                                       !- Number of Vertices
  72, 35.9, 15.8,                         !- X,Y,Z Vertex 1 {m}
  72, 35.9, 13.7,                         !- X,Y,Z Vertex 2 {m}
  72, 35, 13.7,                           !- X,Y,Z Vertex 3 {m}
  72, 35, 15.8;                           !- X,Y,Z Vertex 4 {m}

BuildingSurface:Detailed,
  Room_1423_007f3b82..Face5,              !- Name
  Wall,                                   !- Surface Type
  OpaqueConstruction_47cf3687,            !- Construction Name
  Room_1423_007f3b82,                     !- Zone Name
  Room_1423_007f3b82_Space,               !- Space Name
  Outdoors,                               !- Outside Boundary Condition
  ,                                       !- Outside Boundary Condition Object
  SunExposed,                             !- Sun Exposure
  WindExposed,                            !- Wind Exposure
  ,                                       !- View Factor to Ground
  ,                                       !- Number of Vertices
  93.6, 28.8, 18,                         !- X,Y,Z Vertex 1 {m}
  93.6, 28.8, 13.5,                       !- X,Y,Z Vertex 2 {m}
  93.6, 43.2, 13.5,                       !- X,Y,Z Vertex 3 {m}
  93.6, 43.2, 18;                         !- X,Y,Z Vertex 4 {m}

ZoneControl:Thermostat,
  Room_1423_007f3b82 Thermostat,          !- Name
  Room_1423_007f3b82,                     !- Zone or ZoneList Name
  Room_1423_007f3b82 Thermostat Schedule, !- Control Type Schedule Name
  ThermostatSetpoint:DualSetpoint,        !- Control 1 Object Type
  Setpoint_2eba0a66 14,                   !- Control 1 Name
  ,                                       !- Control 2 Object Type
  ,                                       !- Control 2 Name
  ,                                       !- Control 3 Object Type
  ,                                       !- Control 3 Name
  ,                                       !- Control 4 Object Type
  ,                                       !- Control 4 Name
  0;                                      !- Temperature Difference Between Cutout And Setpoint {deltaC}

Schedule:Compact,
  Room_1423_007f3b82 Thermostat Schedule, !- Name
  Room_1423_007f3b82 Thermostat Schedule Type Limits, !- Schedule Type Limits Name
  Through: 12/31,                         !- Field 1
  For: AllDays,                           !- Field 2
  Until: 24:00,                           !- Field 3
  4;                                      !- Field 4

ScheduleTypeLimits,
  Room_1423_007f3b82 Thermostat Schedule Type Limits, !- Name
  0,                                      !- Lower Limit Value {BasedOnField A3}
  4,                                      !- Upper Limit Value {BasedOnField A3}
  DISCRETE;                               !- Numeric Type

ThermostatSetpoint:DualSetpoint,
  Setpoint_2eba0a66 14,                   !- Name
  ConstantSchedule_3ec00e82,              !- Heating Setpoint Temperature Schedule Name
  ConstantSchedule_b6307482;              !- Cooling Setpoint Temperature Schedule Name

ZoneHVAC:EquipmentConnections,
  Room_1423_007f3b82,                     !- Zone Name
  Room_1423_007f3b82 Equipment List,      !- Zone Conditioning Equipment List Name
  Room_1423_007f3b82 Inlet Node List,     !- Zone Air Inlet Node or NodeList Name
  Room_1423_007f3b82 Exhaust Node List,   !- Zone Air Exhaust Node or NodeList Name
  Node 15;                                !- Zone Air Node Name

NodeList,
  Room_1423_007f3b82 Inlet Node List,     !- Name
  Node 47;                                !- Node Name 1

NodeList,
  Room_1423_007f3b82 Exhaust Node List,   !- Name
  Node 46;                                !- Node Name 1

ZoneHVAC:IdealLoadsAirSystem,
  Room_1423_007f3b82 Ideal Loads Air System, !- Name
  ,                                       !- Availability Schedule Name
  Node 47,                                !- Zone Supply Air Node Name
  Node 46,                                !- Zone Exhaust Air Node Name
  ,                                       !- System Inlet Air Node Name
  50,                                     !- Maximum Heating Supply Air Temperature {C}
  13,                                     !- Minimum Cooling Supply Air Temperature {C}
  ,                                       !- Maximum Heating Supply Air Humidity Ratio {kgWater/kgDryAir}
  ,                                       !- Minimum Cooling Supply Air Humidity Ratio {kgWater/kgDryAir}
  LimitCapacity,                          !- Heating Limit
  ,                                       !- Maximum Heating Air Flow Rate {m3/s}
  Autosize,                               !- Maximum Sensible Heating Capacity {W}
  LimitFlowRateAndCapacity,               !- Cooling Limit
  Autosize,                               !- Maximum Cooling Air Flow Rate {m3/s}
  Autosize,                               !- Maximum Total Cooling Capacity {W}
  WeeklySchedule_2856ceac,                !- Heating Availability Schedule Name
  WeeklySchedule_2856ceac,                !- Cooling Availability Schedule Name
  None,                                   !- Dehumidification Control Type
  ,                                       !- Cooling Sensible Heat Ratio {dimensionless}
  ,                                       !- Humidification Control Type
  Ventilation_b96face6,                   !- Design Specification Outdoor Air Object Name
  ,                                       !- Outdoor Air Inlet Node Name
  None,                                   !- Demand Controlled Ventilation Type
  DifferentialDryBulb,                    !- Outdoor Air Economizer Type
  ,                                       !- Heat Recovery Type
  0,                                      !- Sensible Heat Recovery Effectiveness {dimensionless}
  0;                                      !- Latent Heat Recovery Effectiveness {dimensionless}

ZoneHVAC:EquipmentList,
  Room_1423_007f3b82 Equipment List,      !- Name
  SequentialLoad,                         !- Load Distribution Scheme
  ZoneHVAC:IdealLoadsAirSystem,           !- Zone Equipment Object Type 1
  Room_1423_007f3b82 Ideal Loads Air System, !- Zone Equipment Name 1
  1,                                      !- Zone Equipment Cooling Sequence 1
  1,                                      !- Zone Equipment Heating or No-Load Sequence 1
  ,                                       !- Zone Equipment Sequential Cooling Fraction Schedule Name 1
  ;                                       !- Zone Equipment Sequential Heating Fraction Schedule Name 1

Sizing:Zone,
  Room_1423_007f3b82,                     !- Zone or ZoneList Name
  SupplyAirTemperature,                   !- Zone Cooling Design Supply Air Temperature Input Method
  14,                                     !- Zone Cooling Design Supply Air Temperature {C}
  11.11,                                  !- Zone Cooling Design Supply Air Temperature Difference {deltaC}
  SupplyAirTemperature,                   !- Zone Heating Design Supply Air Temperature Input Method
  40,                                     !- Zone Heating Design Supply Air Temperature {C}
  11.11,                                  !- Zone Heating Design Supply Air Temperature Difference {deltaC}
  0.0085,                                 !- Zone Cooling Design Supply Air Humidity Ratio {kgWater/kgDryAir}
  0.008,                                  !- Zone Heating Design Supply Air Humidity Ratio {kgWater/kgDryAir}
  Room_1423_007f3b82 DSOA Space List,     !- Design Specification Outdoor Air Object Name
  ,                                       !- Zone Heating Sizing Factor
  ,                                       !- Zone Cooling Sizing Factor
  DesignDay,                              !- Cooling Design Air Flow Method
  0,                                      !- Cooling Design Air Flow Rate {m3/s}
  0.000762,                               !- Cooling Minimum Air Flow per Zone Floor Area {m3/s-m2}
  0,                                      !- Cooling Minimum Air Flow {m3/s}
  0,                                      !- Cooling Minimum Air Flow Fraction
  DesignDay,                              !- Heating Design Air Flow Method
  0,                                      !- Heating Design Air Flow Rate {m3/s}
  0.002032,                               !- Heating Maximum Air Flow per Zone Floor Area {m3/s-m2}
  0.1415762,                              !- Heating Maximum Air Flow {m3/s}
  0.3,                                    !- Heating Maximum Air Flow Fraction
  ,                                       !- Design Specification Zone Air Distribution Object Name
  No,                                     !- Account for Dedicated Outdoor Air System
  ,                                       !- Dedicated Outdoor Air System Control Strategy
  ,                                       !- Dedicated Outdoor Air Low Setpoint Temperature for Design {C}
  ,                                       !- Dedicated Outdoor Air High Setpoint Temperature for Design {C}
  Sensible Load Only No Latent Load,      !- Zone Load Sizing Method
  HumidityRatioDifference,                !- Zone Latent Cooling Design Supply Air Humidity Ratio Input Method
  ,                                       !- Zone Dehumidification Design Supply Air Humidity Ratio {kgWater/kgDryAir}
  0.005,                                  !- Zone Cooling Design Supply Air Humidity Ratio Difference {kgWater/kgDryAir}
  HumidityRatioDifference,                !- Zone Latent Heating Design Supply Air Humidity Ratio Input Method
  ,                                       !- Zone Humidification Design Supply Air Humidity Ratio {kgWater/kgDryAir}
  0.005;                                  !- Zone Humidification Design Supply Air Humidity Ratio Difference {kgWater/kgDryAir}

DesignSpecification:OutdoorAir:SpaceList,
  Room_1423_007f3b82 DSOA Space List,     !- Name
  Room_1423_007f3b82_Space,               !- Space Name 1
  Ventilation_b96face6;                   !- Space Design Specification Outdoor Air Object Name 1

Zone,
  Room_1424_be2a7315,                     !- Name
  ,                                       !- Direction of Relative North {deg}
  0,                                      !- X Origin {m}
  0,                                      !- Y Origin {m}
  0,                                      !- Z Origin {m}
  ,                                       !- Type
  1,                                      !- Multiplier
  4.5,                                    !- Ceiling Height {m}
  1399.68,                                !- Volume {m3}
  ,                                       !- Floor Area {m2}
  ,                                       !- Zone Inside Convection Algorithm
  ,                                       !- Zone Outside Convection Algorithm
  Yes;                                    !- Part of Total Floor Area

Space,
  Room_1424_be2a7315_Space,               !- Name
  Room_1424_be2a7315,                     !- Zone Name
  ,                                       !- Ceiling Height {m}
  ,                                       !- Volume {m3}
  ,                                       !- Floor Area {m2}
  ProgramType_f9e2e425;                   !- Space Type

BuildingSurface:Detailed,
  Room_1424_be2a7315..Face0,              !- Name
  Floor,                                  !- Surface Type
  OpaqueConstruction_47cf3687,            !- Construction Name
  Room_1424_be2a7315,                     !- Zone Name
  Room_1424_be2a7315_Space,               !- Space Name
  Surface,                                !- Outside Boundary Condition
  Room_1422_86173f66..Face1,              !- Outside Boundary Condition Object
  NoSun,                                  !- Sun Exposure
  NoWind,                                 !- Wind Exposure
  ,                                       !- View Factor to Ground
  ,                                       !- Number of Vertices
  36, 43.2, 18,                           !- X,Y,Z Vertex 1 {m}
  36, 28.8, 18,                           !- X,Y,Z Vertex 2 {m}
  14.4, 28.8, 18,                         !- X,Y,Z Vertex 3 {m}
  14.4, 43.2, 18;                         !- X,Y,Z Vertex 4 {m}

BuildingSurface:Detailed,
  Room_1424_be2a7315..Face1,              !- Name
  Roof,                                   !- Surface Type
  OpaqueConstruction_47cf3687,            !- Construction Name
  Room_1424_be2a7315,                     !- Zone Name
  Room_1424_be2a7315_Space,               !- Space Name
  Outdoors,                               !- Outside Boundary Condition
  ,                                       !- Outside Boundary Condition Object
  SunExposed,                             !- Sun Exposure
  WindExposed,                            !- Wind Exposure
  ,                                       !- View Factor to Ground
  ,                                       !- Number of Vertices
  14.4, 43.2, 22.5,                       !- X,Y,Z Vertex 1 {m}
  14.4, 28.8, 22.5,                       !- X,Y,Z Vertex 2 {m}
  36, 28.8, 22.5,                         !- X,Y,Z Vertex 3 {m}
  36, 43.2, 22.5;                         !- X,Y,Z Vertex 4 {m}

BuildingSurface:Detailed,
  Room_1424_be2a7315..Face2,              !- Name
  Wall,                                   !- Surface Type
  OpaqueConstruction_47cf3687,            !- Construction Name
  Room_1424_be2a7315,                     !- Zone Name
  Room_1424_be2a7315_Space,               !- Space Name
  Surface,                                !- Outside Boundary Condition
  Room_1415_de86df45..Face15,             !- Outside Boundary Condition Object
  NoSun,                                  !- Sun Exposure
  NoWind,                                 !- Wind Exposure
  ,                                       !- View Factor to Ground
  ,                                       !- Number of Vertices
  14.4, 28.8, 22.5,                       !- X,Y,Z Vertex 1 {m}
  14.4, 28.8, 18,                         !- X,Y,Z Vertex 2 {m}
  36, 28.8, 18,                           !- X,Y,Z Vertex 3 {m}
  36, 28.8, 22.5;                         !- X,Y,Z Vertex 4 {m}

FenestrationSurface:Detailed,
  Ajd_Aperture_2a4627d9,                  !- Name
  Window,                                 !- Surface Type
  WindowConstruction_1dfe9b5d,            !- Construction Name
  Room_1424_be2a7315..Face2,              !- Building Surface Name
  Aperture_2a4627d9,                      !- Outside Boundary Condition Object
  ,                                       !- View Factor to Ground
  ,                                       !- Frame and Divider Name
  ,                                       !- Multiplier
  ,                                       !- Number of Vertices
  20.6, 28.8, 20.3,                       !- X,Y,Z Vertex 1 {m}
  20.6, 28.8, 18.2,                       !- X,Y,Z Vertex 2 {m}
  21.5, 28.8, 18.2,                       !- X,Y,Z Vertex 3 {m}
  21.5, 28.8, 20.3;                       !- X,Y,Z Vertex 4 {m}

FenestrationSurface:Detailed,
  Ajd_Aperture_7c42ec6c,                  !- Name
  Window,                                 !- Surface Type
  WindowConstruction_1dfe9b5d,            !- Construction Name
  Room_1424_be2a7315..Face2,              !- Building Surface Name
  Aperture_7c42ec6c,                      !- Outside Boundary Condition Object
  ,                                       !- View Factor to Ground
  ,                                       !- Frame and Divider Name
  ,                                       !- Multiplier
  ,                                       !- Number of Vertices
  21.7, 28.8, 20.3,                       !- X,Y,Z Vertex 1 {m}
  21.7, 28.8, 18.2,                       !- X,Y,Z Vertex 2 {m}
  22.5, 28.8, 18.2,                       !- X,Y,Z Vertex 3 {m}
  22.5, 28.8, 20.3;                       !- X,Y,Z Vertex 4 {m}

FenestrationSurface:Detailed,
  Ajd_Aperture_80cfbbb1,                  !- Name
  Window,                                 !- Surface Type
  WindowConstruction_1dfe9b5d,            !- Construction Name
  Room_1424_be2a7315..Face2,              !- Building Surface Name
  Aperture_80cfbbb1,                      !- Outside Boundary Condition Object
  ,                                       !- View Factor to Ground
  ,                                       !- Frame and Divider Name
  ,                                       !- Multiplier
  ,                                       !- Number of Vertices
  35, 28.8, 20.3,                         !- X,Y,Z Vertex 1 {m}
  35, 28.8, 18.2,                         !- X,Y,Z Vertex 2 {m}
  35.9, 28.8, 18.2,                       !- X,Y,Z Vertex 3 {m}
  35.9, 28.8, 20.3;                       !- X,Y,Z Vertex 4 {m}

FenestrationSurface:Detailed,
  Ajd_Aperture_8c6c945c,                  !- Name
  Window,                                 !- Surface Type
  WindowConstruction_1dfe9b5d,            !- Construction Name
  Room_1424_be2a7315..Face2,              !- Building Surface Name
  Aperture_8c6c945c,                      !- Outside Boundary Condition Object
  ,                                       !- View Factor to Ground
  ,                                       !- Frame and Divider Name
  ,                                       !- Multiplier
  ,                                       !- Number of Vertices
  28.9, 28.8, 20.3,                       !- X,Y,Z Vertex 1 {m}
  28.9, 28.8, 18.2,                       !- X,Y,Z Vertex 2 {m}
  29.7, 28.8, 18.2,                       !- X,Y,Z Vertex 3 {m}
  29.7, 28.8, 20.3;                       !- X,Y,Z Vertex 4 {m}

FenestrationSurface:Detailed,
  Ajd_Aperture_ca42bf78,                  !- Name
  Window,                                 !- Surface Type
  WindowConstruction_1dfe9b5d,            !- Construction Name
  Room_1424_be2a7315..Face2,              !- Building Surface Name
  Aperture_ca42bf78,                      !- Outside Boundary Condition Object
  ,                                       !- View Factor to Ground
  ,                                       !- Frame and Divider Name
  ,                                       !- Multiplier
  ,                                       !- Number of Vertices
  14.5, 28.8, 20.3,                       !- X,Y,Z Vertex 1 {m}
  14.5, 28.8, 18.2,                       !- X,Y,Z Vertex 2 {m}
  15.3, 28.8, 18.2,                       !- X,Y,Z Vertex 3 {m}
  15.3, 28.8, 20.3;                       !- X,Y,Z Vertex 4 {m}

FenestrationSurface:Detailed,
  Ajd_Aperture_f5d760ce,                  !- Name
  Window,                                 !- Surface Type
  WindowConstruction_1dfe9b5d,            !- Construction Name
  Room_1424_be2a7315..Face2,              !- Building Surface Name
  Aperture_f5d760ce,                      !- Outside Boundary Condition Object
  ,                                       !- View Factor to Ground
  ,                                       !- Frame and Divider Name
  ,                                       !- Multiplier
  ,                                       !- Number of Vertices
  27.8, 28.8, 20.3,                       !- X,Y,Z Vertex 1 {m}
  27.8, 28.8, 18.2,                       !- X,Y,Z Vertex 2 {m}
  28.7, 28.8, 18.2,                       !- X,Y,Z Vertex 3 {m}
  28.7, 28.8, 20.3;                       !- X,Y,Z Vertex 4 {m}

BuildingSurface:Detailed,
  Room_1424_be2a7315..Face3,              !- Name
  Wall,                                   !- Surface Type
  OpaqueConstruction_47cf3687,            !- Construction Name
  Room_1424_be2a7315,                     !- Zone Name
  Room_1424_be2a7315_Space,               !- Space Name
  Outdoors,                               !- Outside Boundary Condition
  ,                                       !- Outside Boundary Condition Object
  SunExposed,                             !- Sun Exposure
  WindExposed,                            !- Wind Exposure
  ,                                       !- View Factor to Ground
  ,                                       !- Number of Vertices
  36, 43.2, 22.5,                         !- X,Y,Z Vertex 1 {m}
  36, 43.2, 18,                           !- X,Y,Z Vertex 2 {m}
  14.4, 43.2, 18,                         !- X,Y,Z Vertex 3 {m}
  14.4, 43.2, 22.5;                       !- X,Y,Z Vertex 4 {m}

BuildingSurface:Detailed,
  Room_1424_be2a7315..Face4,              !- Name
  Wall,                                   !- Surface Type
  OpaqueConstruction_47cf3687,            !- Construction Name
  Room_1424_be2a7315,                     !- Zone Name
  Room_1424_be2a7315_Space,               !- Space Name
  Outdoors,                               !- Outside Boundary Condition
  ,                                       !- Outside Boundary Condition Object
  SunExposed,                             !- Sun Exposure
  WindExposed,                            !- Wind Exposure
  ,                                       !- View Factor to Ground
  ,                                       !- Number of Vertices
  36, 28.8, 22.5,                         !- X,Y,Z Vertex 1 {m}
  36, 28.8, 18,                           !- X,Y,Z Vertex 2 {m}
  36, 43.2, 18,                           !- X,Y,Z Vertex 3 {m}
  36, 43.2, 22.5;                         !- X,Y,Z Vertex 4 {m}

BuildingSurface:Detailed,
  Room_1424_be2a7315..Face5,              !- Name
  Wall,                                   !- Surface Type
  OpaqueConstruction_47cf3687,            !- Construction Name
  Room_1424_be2a7315,                     !- Zone Name
  Room_1424_be2a7315_Space,               !- Space Name
  Outdoors,                               !- Outside Boundary Condition
  ,                                       !- Outside Boundary Condition Object
  SunExposed,                             !- Sun Exposure
  WindExposed,                            !- Wind Exposure
  ,                                       !- View Factor to Ground
  ,                                       !- Number of Vertices
  14.4, 43.2, 22.5,                       !- X,Y,Z Vertex 1 {m}
  14.4, 43.2, 18,                         !- X,Y,Z Vertex 2 {m}
  14.4, 28.8, 18,                         !- X,Y,Z Vertex 3 {m}
  14.4, 28.8, 22.5;                       !- X,Y,Z Vertex 4 {m}

ZoneControl:Thermostat,
  Room_1424_be2a7315 Thermostat,          !- Name
  Room_1424_be2a7315,                     !- Zone or ZoneList Name
  Room_1424_be2a7315 Thermostat Schedule, !- Control Type Schedule Name
  ThermostatSetpoint:DualSetpoint,        !- Control 1 Object Type
  Setpoint_2eba0a66 15,                   !- Control 1 Name
  ,                                       !- Control 2 Object Type
  ,                                       !- Control 2 Name
  ,                                       !- Control 3 Object Type
  ,                                       !- Control 3 Name
  ,                                       !- Control 4 Object Type
  ,                                       !- Control 4 Name
  0;                                      !- Temperature Difference Between Cutout And Setpoint {deltaC}

Schedule:Compact,
  Room_1424_be2a7315 Thermostat Schedule, !- Name
  Room_1424_be2a7315 Thermostat Schedule Type Limits, !- Schedule Type Limits Name
  Through: 12/31,                         !- Field 1
  For: AllDays,                           !- Field 2
  Until: 24:00,                           !- Field 3
  4;                                      !- Field 4

ScheduleTypeLimits,
  Room_1424_be2a7315 Thermostat Schedule Type Limits, !- Name
  0,                                      !- Lower Limit Value {BasedOnField A3}
  4,                                      !- Upper Limit Value {BasedOnField A3}
  DISCRETE;                               !- Numeric Type

ThermostatSetpoint:DualSetpoint,
  Setpoint_2eba0a66 15,                   !- Name
  ConstantSchedule_3ec00e82,              !- Heating Setpoint Temperature Schedule Name
  ConstantSchedule_b6307482;              !- Cooling Setpoint Temperature Schedule Name

ZoneHVAC:EquipmentConnections,
  Room_1424_be2a7315,                     !- Zone Name
  Room_1424_be2a7315 Equipment List,      !- Zone Conditioning Equipment List Name
  Room_1424_be2a7315 Inlet Node List,     !- Zone Air Inlet Node or NodeList Name
  Room_1424_be2a7315 Exhaust Node List,   !- Zone Air Exhaust Node or NodeList Name
  Node 16;                                !- Zone Air Node Name

NodeList,
  Room_1424_be2a7315 Inlet Node List,     !- Name
  Node 49;                                !- Node Name 1

NodeList,
  Room_1424_be2a7315 Exhaust Node List,   !- Name
  Node 48;                                !- Node Name 1

ZoneHVAC:IdealLoadsAirSystem,
  Room_1424_be2a7315 Ideal Loads Air System, !- Name
  ,                                       !- Availability Schedule Name
  Node 49,                                !- Zone Supply Air Node Name
  Node 48,                                !- Zone Exhaust Air Node Name
  ,                                       !- System Inlet Air Node Name
  50,                                     !- Maximum Heating Supply Air Temperature {C}
  13,                                     !- Minimum Cooling Supply Air Temperature {C}
  ,                                       !- Maximum Heating Supply Air Humidity Ratio {kgWater/kgDryAir}
  ,                                       !- Minimum Cooling Supply Air Humidity Ratio {kgWater/kgDryAir}
  LimitCapacity,                          !- Heating Limit
  ,                                       !- Maximum Heating Air Flow Rate {m3/s}
  Autosize,                               !- Maximum Sensible Heating Capacity {W}
  LimitFlowRateAndCapacity,               !- Cooling Limit
  Autosize,                               !- Maximum Cooling Air Flow Rate {m3/s}
  Autosize,                               !- Maximum Total Cooling Capacity {W}
  WeeklySchedule_2856ceac,                !- Heating Availability Schedule Name
  WeeklySchedule_2856ceac,                !- Cooling Availability Schedule Name
  None,                                   !- Dehumidification Control Type
  ,                                       !- Cooling Sensible Heat Ratio {dimensionless}
  ,                                       !- Humidification Control Type
  Ventilation_b96face6,                   !- Design Specification Outdoor Air Object Name
  ,                                       !- Outdoor Air Inlet Node Name
  None,                                   !- Demand Controlled Ventilation Type
  DifferentialDryBulb,                    !- Outdoor Air Economizer Type
  ,                                       !- Heat Recovery Type
  0,                                      !- Sensible Heat Recovery Effectiveness {dimensionless}
  0;                                      !- Latent Heat Recovery Effectiveness {dimensionless}

ZoneHVAC:EquipmentList,
  Room_1424_be2a7315 Equipment List,      !- Name
  SequentialLoad,                         !- Load Distribution Scheme
  ZoneHVAC:IdealLoadsAirSystem,           !- Zone Equipment Object Type 1
  Room_1424_be2a7315 Ideal Loads Air System, !- Zone Equipment Name 1
  1,                                      !- Zone Equipment Cooling Sequence 1
  1,                                      !- Zone Equipment Heating or No-Load Sequence 1
  ,                                       !- Zone Equipment Sequential Cooling Fraction Schedule Name 1
  ;                                       !- Zone Equipment Sequential Heating Fraction Schedule Name 1

Sizing:Zone,
  Room_1424_be2a7315,                     !- Zone or ZoneList Name
  SupplyAirTemperature,                   !- Zone Cooling Design Supply Air Temperature Input Method
  14,                                     !- Zone Cooling Design Supply Air Temperature {C}
  11.11,                                  !- Zone Cooling Design Supply Air Temperature Difference {deltaC}
  SupplyAirTemperature,                   !- Zone Heating Design Supply Air Temperature Input Method
  40,                                     !- Zone Heating Design Supply Air Temperature {C}
  11.11,                                  !- Zone Heating Design Supply Air Temperature Difference {deltaC}
  0.0085,                                 !- Zone Cooling Design Supply Air Humidity Ratio {kgWater/kgDryAir}
  0.008,                                  !- Zone Heating Design Supply Air Humidity Ratio {kgWater/kgDryAir}
  Room_1424_be2a7315 DSOA Space List,     !- Design Specification Outdoor Air Object Name
  ,                                       !- Zone Heating Sizing Factor
  ,                                       !- Zone Cooling Sizing Factor
  DesignDay,                              !- Cooling Design Air Flow Method
  0,                                      !- Cooling Design Air Flow Rate {m3/s}
  0.000762,                               !- Cooling Minimum Air Flow per Zone Floor Area {m3/s-m2}
  0,                                      !- Cooling Minimum Air Flow {m3/s}
  0,                                      !- Cooling Minimum Air Flow Fraction
  DesignDay,                              !- Heating Design Air Flow Method
  0,                                      !- Heating Design Air Flow Rate {m3/s}
  0.002032,                               !- Heating Maximum Air Flow per Zone Floor Area {m3/s-m2}
  0.1415762,                              !- Heating Maximum Air Flow {m3/s}
  0.3,                                    !- Heating Maximum Air Flow Fraction
  ,                                       !- Design Specification Zone Air Distribution Object Name
  No,                                     !- Account for Dedicated Outdoor Air System
  ,                                       !- Dedicated Outdoor Air System Control Strategy
  ,                                       !- Dedicated Outdoor Air Low Setpoint Temperature for Design {C}
  ,                                       !- Dedicated Outdoor Air High Setpoint Temperature for Design {C}
  Sensible Load Only No Latent Load,      !- Zone Load Sizing Method
  HumidityRatioDifference,                !- Zone Latent Cooling Design Supply Air Humidity Ratio Input Method
  ,                                       !- Zone Dehumidification Design Supply Air Humidity Ratio {kgWater/kgDryAir}
  0.005,                                  !- Zone Cooling Design Supply Air Humidity Ratio Difference {kgWater/kgDryAir}
  HumidityRatioDifference,                !- Zone Latent Heating Design Supply Air Humidity Ratio Input Method
  ,                                       !- Zone Humidification Design Supply Air Humidity Ratio {kgWater/kgDryAir}
  0.005;                                  !- Zone Humidification Design Supply Air Humidity Ratio Difference {kgWater/kgDryAir}

DesignSpecification:OutdoorAir:SpaceList,
  Room_1424_be2a7315 DSOA Space List,     !- Name
  Room_1424_be2a7315_Space,               !- Space Name 1
  Ventilation_b96face6;                   !- Space Design Specification Outdoor Air Object Name 1

Zone,
  Room_1425_fad10760,                     !- Name
  ,                                       !- Direction of Relative North {deg}
  0,                                      !- X Origin {m}
  0,                                      !- Y Origin {m}
  0,                                      !- Z Origin {m}
  ,                                       !- Type
  1,                                      !- Multiplier
  4.5,                                    !- Ceiling Height {m}
  1399.68,                                !- Volume {m3}
  ,                                       !- Floor Area {m2}
  ,                                       !- Zone Inside Convection Algorithm
  ,                                       !- Zone Outside Convection Algorithm
  Yes;                                    !- Part of Total Floor Area

Space,
  Room_1425_fad10760_Space,               !- Name
  Room_1425_fad10760,                     !- Zone Name
  ,                                       !- Ceiling Height {m}
  ,                                       !- Volume {m3}
  ,                                       !- Floor Area {m2}
  ProgramType_f9e2e425;                   !- Space Type

BuildingSurface:Detailed,
  Room_1425_fad10760..Face0,              !- Name
  Floor,                                  !- Surface Type
  OpaqueConstruction_47cf3687,            !- Construction Name
  Room_1425_fad10760,                     !- Zone Name
  Room_1425_fad10760_Space,               !- Space Name
  Surface,                                !- Outside Boundary Condition
  Room_1423_007f3b82..Face1,              !- Outside Boundary Condition Object
  NoSun,                                  !- Sun Exposure
  NoWind,                                 !- Wind Exposure
  ,                                       !- View Factor to Ground
  ,                                       !- Number of Vertices
  93.6, 43.2, 18,                         !- X,Y,Z Vertex 1 {m}
  93.6, 28.8, 18,                         !- X,Y,Z Vertex 2 {m}
  72, 28.8, 18,                           !- X,Y,Z Vertex 3 {m}
  72, 43.2, 18;                           !- X,Y,Z Vertex 4 {m}

BuildingSurface:Detailed,
  Room_1425_fad10760..Face1,              !- Name
  Roof,                                   !- Surface Type
  OpaqueConstruction_47cf3687,            !- Construction Name
  Room_1425_fad10760,                     !- Zone Name
  Room_1425_fad10760_Space,               !- Space Name
  Outdoors,                               !- Outside Boundary Condition
  ,                                       !- Outside Boundary Condition Object
  SunExposed,                             !- Sun Exposure
  WindExposed,                            !- Wind Exposure
  ,                                       !- View Factor to Ground
  ,                                       !- Number of Vertices
  72, 43.2, 22.5,                         !- X,Y,Z Vertex 1 {m}
  72, 28.8, 22.5,                         !- X,Y,Z Vertex 2 {m}
  93.6, 28.8, 22.5,                       !- X,Y,Z Vertex 3 {m}
  93.6, 43.2, 22.5;                       !- X,Y,Z Vertex 4 {m}

BuildingSurface:Detailed,
  Room_1425_fad10760..Face2,              !- Name
  Wall,                                   !- Surface Type
  OpaqueConstruction_47cf3687,            !- Construction Name
  Room_1425_fad10760,                     !- Zone Name
  Room_1425_fad10760_Space,               !- Space Name
  Outdoors,                               !- Outside Boundary Condition
  ,                                       !- Outside Boundary Condition Object
  SunExposed,                             !- Sun Exposure
  WindExposed,                            !- Wind Exposure
  ,                                       !- View Factor to Ground
  ,                                       !- Number of Vertices
  93.6, 43.2, 22.5,                       !- X,Y,Z Vertex 1 {m}
  93.6, 43.2, 18,                         !- X,Y,Z Vertex 2 {m}
  72, 43.2, 18,                           !- X,Y,Z Vertex 3 {m}
  72, 43.2, 22.5;                         !- X,Y,Z Vertex 4 {m}

BuildingSurface:Detailed,
  Room_1425_fad10760..Face3,              !- Name
  Wall,                                   !- Surface Type
  OpaqueConstruction_47cf3687,            !- Construction Name
  Room_1425_fad10760,                     !- Zone Name
  Room_1425_fad10760_Space,               !- Space Name
  Surface,                                !- Outside Boundary Condition
  Room_1415_de86df45..Face16,             !- Outside Boundary Condition Object
  NoSun,                                  !- Sun Exposure
  NoWind,                                 !- Wind Exposure
  ,                                       !- View Factor to Ground
  ,                                       !- Number of Vertices
  72, 28.8, 22.5,                         !- X,Y,Z Vertex 1 {m}
  72, 28.8, 18,                           !- X,Y,Z Vertex 2 {m}
  93.6, 28.8, 18,                         !- X,Y,Z Vertex 3 {m}
  93.6, 28.8, 22.5;                       !- X,Y,Z Vertex 4 {m}

FenestrationSurface:Detailed,
  Aperture_1d175904,                      !- Name
  Window,                                 !- Surface Type
  WindowConstruction_1dfe9b5d,            !- Construction Name
  Room_1425_fad10760..Face3,              !- Building Surface Name
  Ajd_Aperture_1d175904,                  !- Outside Boundary Condition Object
  ,                                       !- View Factor to Ground
  ,                                       !- Frame and Divider Name
  ,                                       !- Multiplier
  ,                                       !- Number of Vertices
  92.6, 28.8, 20.3,                       !- X,Y,Z Vertex 1 {m}
  92.6, 28.8, 18.2,                       !- X,Y,Z Vertex 2 {m}
  93.5, 28.8, 18.2,                       !- X,Y,Z Vertex 3 {m}
  93.5, 28.8, 20.3;                       !- X,Y,Z Vertex 4 {m}

FenestrationSurface:Detailed,
  Aperture_3087a912,                      !- Name
  Window,                                 !- Surface Type
  WindowConstruction_1dfe9b5d,            !- Construction Name
  Room_1425_fad10760..Face3,              !- Building Surface Name
  Ajd_Aperture_3087a912,                  !- Outside Boundary Condition Object
  ,                                       !- View Factor to Ground
  ,                                       !- Frame and Divider Name
  ,                                       !- Multiplier
  ,                                       !- Number of Vertices
  85.4, 28.8, 20.3,                       !- X,Y,Z Vertex 1 {m}
  85.4, 28.8, 18.2,                       !- X,Y,Z Vertex 2 {m}
  86.3, 28.8, 18.2,                       !- X,Y,Z Vertex 3 {m}
  86.3, 28.8, 20.3;                       !- X,Y,Z Vertex 4 {m}

FenestrationSurface:Detailed,
  Aperture_68cc608e,                      !- Name
  Window,                                 !- Surface Type
  WindowConstruction_1dfe9b5d,            !- Construction Name
  Room_1425_fad10760..Face3,              !- Building Surface Name
  Ajd_Aperture_68cc608e,                  !- Outside Boundary Condition Object
  ,                                       !- View Factor to Ground
  ,                                       !- Frame and Divider Name
  ,                                       !- Multiplier
  ,                                       !- Number of Vertices
  78.2, 28.8, 20.3,                       !- X,Y,Z Vertex 1 {m}
  78.2, 28.8, 18.2,                       !- X,Y,Z Vertex 2 {m}
  79.1, 28.8, 18.2,                       !- X,Y,Z Vertex 3 {m}
  79.1, 28.8, 20.3;                       !- X,Y,Z Vertex 4 {m}

FenestrationSurface:Detailed,
  Aperture_7b10e6a7,                      !- Name
  Window,                                 !- Surface Type
  WindowConstruction_1dfe9b5d,            !- Construction Name
  Room_1425_fad10760..Face3,              !- Building Surface Name
  Ajd_Aperture_7b10e6a7,                  !- Outside Boundary Condition Object
  ,                                       !- View Factor to Ground
  ,                                       !- Frame and Divider Name
  ,                                       !- Multiplier
  ,                                       !- Number of Vertices
  86.5, 28.8, 20.3,                       !- X,Y,Z Vertex 1 {m}
  86.5, 28.8, 18.2,                       !- X,Y,Z Vertex 2 {m}
  87.3, 28.8, 18.2,                       !- X,Y,Z Vertex 3 {m}
  87.3, 28.8, 20.3;                       !- X,Y,Z Vertex 4 {m}

FenestrationSurface:Detailed,
  Aperture_c7c95618,                      !- Name
  Window,                                 !- Surface Type
  WindowConstruction_1dfe9b5d,            !- Construction Name
  Room_1425_fad10760..Face3,              !- Building Surface Name
  Ajd_Aperture_c7c95618,                  !- Outside Boundary Condition Object
  ,                                       !- View Factor to Ground
  ,                                       !- Frame and Divider Name
  ,                                       !- Multiplier
  ,                                       !- Number of Vertices
  79.3, 28.8, 20.3,                       !- X,Y,Z Vertex 1 {m}
  79.3, 28.8, 18.2,                       !- X,Y,Z Vertex 2 {m}
  80.1, 28.8, 18.2,                       !- X,Y,Z Vertex 3 {m}
  80.1, 28.8, 20.3;                       !- X,Y,Z Vertex 4 {m}

FenestrationSurface:Detailed,
  Aperture_ceefd9f4,                      !- Name
  Window,                                 !- Surface Type
  WindowConstruction_1dfe9b5d,            !- Construction Name
  Room_1425_fad10760..Face3,              !- Building Surface Name
  Ajd_Aperture_ceefd9f4,                  !- Outside Boundary Condition Object
  ,                                       !- View Factor to Ground
  ,                                       !- Frame and Divider Name
  ,                                       !- Multiplier
  ,                                       !- Number of Vertices
  72.1, 28.8, 20.3,                       !- X,Y,Z Vertex 1 {m}
  72.1, 28.8, 18.2,                       !- X,Y,Z Vertex 2 {m}
  72.9, 28.8, 18.2,                       !- X,Y,Z Vertex 3 {m}
  72.9, 28.8, 20.3;                       !- X,Y,Z Vertex 4 {m}

BuildingSurface:Detailed,
  Room_1425_fad10760..Face4,              !- Name
  Wall,                                   !- Surface Type
  OpaqueConstruction_47cf3687,            !- Construction Name
  Room_1425_fad10760,                     !- Zone Name
  Room_1425_fad10760_Space,               !- Space Name
  Surface,                                !- Outside Boundary Condition
  Room_1415_de86df45..Face18,             !- Outside Boundary Condition Object
  NoSun,                                  !- Sun Exposure
  NoWind,                                 !- Wind Exposure
  ,                                       !- View Factor to Ground
  ,                                       !- Number of Vertices
  72, 43.2, 22.5,                         !- X,Y,Z Vertex 1 {m}
  72, 43.2, 18,                           !- X,Y,Z Vertex 2 {m}
  72, 28.8, 18,                           !- X,Y,Z Vertex 3 {m}
  72, 28.8, 22.5;                         !- X,Y,Z Vertex 4 {m}

FenestrationSurface:Detailed,
  Ajd_Aperture_21560001,                  !- Name
  Window,                                 !- Surface Type
  WindowConstruction_1dfe9b5d,            !- Construction Name
  Room_1425_fad10760..Face4,              !- Building Surface Name
  Aperture_21560001,                      !- Outside Boundary Condition Object
  ,                                       !- View Factor to Ground
  ,                                       !- Frame and Divider Name
  ,                                       !- Multiplier
  ,                                       !- Number of Vertices
  72, 43.1, 20.3,                         !- X,Y,Z Vertex 1 {m}
  72, 43.1, 18.2,                         !- X,Y,Z Vertex 2 {m}
  72, 42.2, 18.2,                         !- X,Y,Z Vertex 3 {m}
  72, 42.2, 20.3;                         !- X,Y,Z Vertex 4 {m}

FenestrationSurface:Detailed,
  Ajd_Aperture_aa8b8670,                  !- Name
  Window,                                 !- Surface Type
  WindowConstruction_1dfe9b5d,            !- Construction Name
  Room_1425_fad10760..Face4,              !- Building Surface Name
  Aperture_aa8b8670,                      !- Outside Boundary Condition Object
  ,                                       !- View Factor to Ground
  ,                                       !- Frame and Divider Name
  ,                                       !- Multiplier
  ,                                       !- Number of Vertices
  72, 29.7, 20.3,                         !- X,Y,Z Vertex 1 {m}
  72, 29.7, 18.2,                         !- X,Y,Z Vertex 2 {m}
  72, 28.9, 18.2,                         !- X,Y,Z Vertex 3 {m}
  72, 28.9, 20.3;                         !- X,Y,Z Vertex 4 {m}

FenestrationSurface:Detailed,
  Ajd_Aperture_ea19babf,                  !- Name
  Window,                                 !- Surface Type
  WindowConstruction_1dfe9b5d,            !- Construction Name
  Room_1425_fad10760..Face4,              !- Building Surface Name
  Aperture_ea19babf,                      !- Outside Boundary Condition Object
  ,                                       !- View Factor to Ground
  ,                                       !- Frame and Divider Name
  ,                                       !- Multiplier
  ,                                       !- Number of Vertices
  72, 36.9, 20.3,                         !- X,Y,Z Vertex 1 {m}
  72, 36.9, 18.2,                         !- X,Y,Z Vertex 2 {m}
  72, 36.1, 18.2,                         !- X,Y,Z Vertex 3 {m}
  72, 36.1, 20.3;                         !- X,Y,Z Vertex 4 {m}

FenestrationSurface:Detailed,
  Ajd_Aperture_f5c4d4a6,                  !- Name
  Window,                                 !- Surface Type
  WindowConstruction_1dfe9b5d,            !- Construction Name
  Room_1425_fad10760..Face4,              !- Building Surface Name
  Aperture_f5c4d4a6,                      !- Outside Boundary Condition Object
  ,                                       !- View Factor to Ground
  ,                                       !- Frame and Divider Name
  ,                                       !- Multiplier
  ,                                       !- Number of Vertices
  72, 35.9, 20.3,                         !- X,Y,Z Vertex 1 {m}
  72, 35.9, 18.2,                         !- X,Y,Z Vertex 2 {m}
  72, 35, 18.2,                           !- X,Y,Z Vertex 3 {m}
  72, 35, 20.3;                           !- X,Y,Z Vertex 4 {m}

BuildingSurface:Detailed,
  Room_1425_fad10760..Face5,              !- Name
  Wall,                                   !- Surface Type
  OpaqueConstruction_47cf3687,            !- Construction Name
  Room_1425_fad10760,                     !- Zone Name
  Room_1425_fad10760_Space,               !- Space Name
  Outdoors,                               !- Outside Boundary Condition
  ,                                       !- Outside Boundary Condition Object
  SunExposed,                             !- Sun Exposure
  WindExposed,                            !- Wind Exposure
  ,                                       !- View Factor to Ground
  ,                                       !- Number of Vertices
  93.6, 28.8, 22.5,                       !- X,Y,Z Vertex 1 {m}
  93.6, 28.8, 18,                         !- X,Y,Z Vertex 2 {m}
  93.6, 43.2, 18,                         !- X,Y,Z Vertex 3 {m}
  93.6, 43.2, 22.5;                       !- X,Y,Z Vertex 4 {m}

ZoneControl:Thermostat,
  Room_1425_fad10760 Thermostat,          !- Name
  Room_1425_fad10760,                     !- Zone or ZoneList Name
  Room_1425_fad10760 Thermostat Schedule, !- Control Type Schedule Name
  ThermostatSetpoint:DualSetpoint,        !- Control 1 Object Type
  Setpoint_2eba0a66 16,                   !- Control 1 Name
  ,                                       !- Control 2 Object Type
  ,                                       !- Control 2 Name
  ,                                       !- Control 3 Object Type
  ,                                       !- Control 3 Name
  ,                                       !- Control 4 Object Type
  ,                                       !- Control 4 Name
  0;                                      !- Temperature Difference Between Cutout And Setpoint {deltaC}

Schedule:Compact,
  Room_1425_fad10760 Thermostat Schedule, !- Name
  Room_1425_fad10760 Thermostat Schedule Type Limits, !- Schedule Type Limits Name
  Through: 12/31,                         !- Field 1
  For: AllDays,                           !- Field 2
  Until: 24:00,                           !- Field 3
  4;                                      !- Field 4

ScheduleTypeLimits,
  Room_1425_fad10760 Thermostat Schedule Type Limits, !- Name
  0,                                      !- Lower Limit Value {BasedOnField A3}
  4,                                      !- Upper Limit Value {BasedOnField A3}
  DISCRETE;                               !- Numeric Type

ThermostatSetpoint:DualSetpoint,
  Setpoint_2eba0a66 16,                   !- Name
  ConstantSchedule_3ec00e82,              !- Heating Setpoint Temperature Schedule Name
  ConstantSchedule_b6307482;              !- Cooling Setpoint Temperature Schedule Name

ZoneHVAC:EquipmentConnections,
  Room_1425_fad10760,                     !- Zone Name
  Room_1425_fad10760 Equipment List,      !- Zone Conditioning Equipment List Name
  Room_1425_fad10760 Inlet Node List,     !- Zone Air Inlet Node or NodeList Name
  Room_1425_fad10760 Exhaust Node List,   !- Zone Air Exhaust Node or NodeList Name
  Node 17;                                !- Zone Air Node Name

NodeList,
  Room_1425_fad10760 Inlet Node List,     !- Name
  Node 51;                                !- Node Name 1

NodeList,
  Room_1425_fad10760 Exhaust Node List,   !- Name
  Node 50;                                !- Node Name 1

ZoneHVAC:IdealLoadsAirSystem,
  Room_1425_fad10760 Ideal Loads Air System, !- Name
  ,                                       !- Availability Schedule Name
  Node 51,                                !- Zone Supply Air Node Name
  Node 50,                                !- Zone Exhaust Air Node Name
  ,                                       !- System Inlet Air Node Name
  50,                                     !- Maximum Heating Supply Air Temperature {C}
  13,                                     !- Minimum Cooling Supply Air Temperature {C}
  ,                                       !- Maximum Heating Supply Air Humidity Ratio {kgWater/kgDryAir}
  ,                                       !- Minimum Cooling Supply Air Humidity Ratio {kgWater/kgDryAir}
  LimitCapacity,                          !- Heating Limit
  ,                                       !- Maximum Heating Air Flow Rate {m3/s}
  Autosize,                               !- Maximum Sensible Heating Capacity {W}
  LimitFlowRateAndCapacity,               !- Cooling Limit
  Autosize,                               !- Maximum Cooling Air Flow Rate {m3/s}
  Autosize,                               !- Maximum Total Cooling Capacity {W}
  WeeklySchedule_2856ceac,                !- Heating Availability Schedule Name
  WeeklySchedule_2856ceac,                !- Cooling Availability Schedule Name
  None,                                   !- Dehumidification Control Type
  ,                                       !- Cooling Sensible Heat Ratio {dimensionless}
  ,                                       !- Humidification Control Type
  Ventilation_b96face6,                   !- Design Specification Outdoor Air Object Name
  ,                                       !- Outdoor Air Inlet Node Name
  None,                                   !- Demand Controlled Ventilation Type
  DifferentialDryBulb,                    !- Outdoor Air Economizer Type
  ,                                       !- Heat Recovery Type
  0,                                      !- Sensible Heat Recovery Effectiveness {dimensionless}
  0;                                      !- Latent Heat Recovery Effectiveness {dimensionless}

ZoneHVAC:EquipmentList,
  Room_1425_fad10760 Equipment List,      !- Name
  SequentialLoad,                         !- Load Distribution Scheme
  ZoneHVAC:IdealLoadsAirSystem,           !- Zone Equipment Object Type 1
  Room_1425_fad10760 Ideal Loads Air System, !- Zone Equipment Name 1
  1,                                      !- Zone Equipment Cooling Sequence 1
  1,                                      !- Zone Equipment Heating or No-Load Sequence 1
  ,                                       !- Zone Equipment Sequential Cooling Fraction Schedule Name 1
  ;                                       !- Zone Equipment Sequential Heating Fraction Schedule Name 1

Sizing:Zone,
  Room_1425_fad10760,                     !- Zone or ZoneList Name
  SupplyAirTemperature,                   !- Zone Cooling Design Supply Air Temperature Input Method
  14,                                     !- Zone Cooling Design Supply Air Temperature {C}
  11.11,                                  !- Zone Cooling Design Supply Air Temperature Difference {deltaC}
  SupplyAirTemperature,                   !- Zone Heating Design Supply Air Temperature Input Method
  40,                                     !- Zone Heating Design Supply Air Temperature {C}
  11.11,                                  !- Zone Heating Design Supply Air Temperature Difference {deltaC}
  0.0085,                                 !- Zone Cooling Design Supply Air Humidity Ratio {kgWater/kgDryAir}
  0.008,                                  !- Zone Heating Design Supply Air Humidity Ratio {kgWater/kgDryAir}
  Room_1425_fad10760 DSOA Space List,     !- Design Specification Outdoor Air Object Name
  ,                                       !- Zone Heating Sizing Factor
  ,                                       !- Zone Cooling Sizing Factor
  DesignDay,                              !- Cooling Design Air Flow Method
  0,                                      !- Cooling Design Air Flow Rate {m3/s}
  0.000762,                               !- Cooling Minimum Air Flow per Zone Floor Area {m3/s-m2}
  0,                                      !- Cooling Minimum Air Flow {m3/s}
  0,                                      !- Cooling Minimum Air Flow Fraction
  DesignDay,                              !- Heating Design Air Flow Method
  0,                                      !- Heating Design Air Flow Rate {m3/s}
  0.002032,                               !- Heating Maximum Air Flow per Zone Floor Area {m3/s-m2}
  0.1415762,                              !- Heating Maximum Air Flow {m3/s}
  0.3,                                    !- Heating Maximum Air Flow Fraction
  ,                                       !- Design Specification Zone Air Distribution Object Name
  No,                                     !- Account for Dedicated Outdoor Air System
  ,                                       !- Dedicated Outdoor Air System Control Strategy
  ,                                       !- Dedicated Outdoor Air Low Setpoint Temperature for Design {C}
  ,                                       !- Dedicated Outdoor Air High Setpoint Temperature for Design {C}
  Sensible Load Only No Latent Load,      !- Zone Load Sizing Method
  HumidityRatioDifference,                !- Zone Latent Cooling Design Supply Air Humidity Ratio Input Method
  ,                                       !- Zone Dehumidification Design Supply Air Humidity Ratio {kgWater/kgDryAir}
  0.005,                                  !- Zone Cooling Design Supply Air Humidity Ratio Difference {kgWater/kgDryAir}
  HumidityRatioDifference,                !- Zone Latent Heating Design Supply Air Humidity Ratio Input Method
  ,                                       !- Zone Humidification Design Supply Air Humidity Ratio {kgWater/kgDryAir}
  0.005;                                  !- Zone Humidification Design Supply Air Humidity Ratio Difference {kgWater/kgDryAir}

DesignSpecification:OutdoorAir:SpaceList,
  Room_1425_fad10760 DSOA Space List,     !- Name
  Room_1425_fad10760_Space,               !- Space Name 1
  Ventilation_b96face6;                   !- Space Design Specification Outdoor Air Object Name 1

SimulationControl,
  Yes,                                    !- Do Zone Sizing Calculation
  Yes,                                    !- Do System Sizing Calculation
  Yes,                                    !- Do Plant Sizing Calculation
  No,                                     !- Run Simulation for Sizing Periods
  Yes,                                    !- Run Simulation for Weather File Run Periods
  No,                                     !- Do HVAC Sizing Simulation for Sizing Periods
  ;                                       !- Maximum Number of HVAC Sizing Simulation Passes

HeatBalanceAlgorithm,
  ConductionTransferFunction,             !- Algorithm
  200;                                    !- Surface Temperature Upper Limit {C}

RunPeriod,
  Run Period 1,                           !- Name
  1,                                      !- Begin Month
  1,                                      !- Begin Day of Month
  2006,                                   !- Begin Year
  12,                                     !- End Month
  31,                                     !- End Day of Month
  2006,                                   !- End Year
  Sunday,                                 !- Day of Week for Start Day
  No,                                     !- Use Weather File Holidays and Special Days
  No,                                     !- Use Weather File Daylight Saving Period
  No,                                     !- Apply Weekend Holiday Rule
  Yes,                                    !- Use Weather File Rain Indicators
  Yes;                                    !- Use Weather File Snow Indicators

ShadowCalculation,
  PolygonClipping,                        !- Shading Calculation Method
  Periodic,                               !- Shading Calculation Update Frequency Method
  30,                                     !- Shading Calculation Update Frequency
  15000,                                  !- Maximum Figures in Shadow Overlap Calculations
  SutherlandHodgman,                      !- Polygon Clipping Algorithm
  512,                                    !- Pixel Counting Resolution
  SimpleSkyDiffuseModeling,               !- Sky Diffuse Modeling Algorithm
  No,                                     !- Output External Shading Calculation Results
  No,                                     !- Disable Self-Shading Within Shading Zone Groups
  No;                                     !- Disable Self-Shading From Shading Zone Groups to Other Zones

Sizing:Parameters,
  1.25,                                   !- Heating Sizing Factor
  1.15;                                   !- Cooling Sizing Factor

GlobalGeometryRules,
  UpperLeftCorner,                        !- Starting Vertex Position
  Counterclockwise,                       !- Vertex Entry Direction
  Relative,                               !- Coordinate System
  Relative,                               !- Daylighting Reference Point Coordinate System
  Relative;                               !- Rectangular Surface Coordinate System

Material,
  Generic 25mm Insulation,                !- Name
  MediumRough,                            !- Roughness
  0.025,                                  !- Thickness {m}
  0.03,                                   !- Conductivity {W/m-K}
  43,                                     !- Density {kg/m3}
  1210,                                   !- Specific Heat {J/kg-K}
  0.9,                                    !- Thermal Absorptance
  0.7,                                    !- Solar Absorptance
  0.7;                                    !- Visible Absorptance

Material,
  Generic 25mm Wood,                      !- Name
  MediumSmooth,                           !- Roughness
  0.0254,                                 !- Thickness {m}
  0.15,                                   !- Conductivity {W/m-K}
  608,                                    !- Density {kg/m3}
  1630,                                   !- Specific Heat {J/kg-K}
  0.9,                                    !- Thermal Absorptance
  0.5,                                    !- Solar Absorptance
  0.5;                                    !- Visible Absorptance

Material,
  Generic 50mm Insulation,                !- Name
  MediumRough,                            !- Roughness
  0.05,                                   !- Thickness {m}
  0.03,                                   !- Conductivity {W/m-K}
  43,                                     !- Density {kg/m3}
  1210,                                   !- Specific Heat {J/kg-K}
  0.9,                                    !- Thermal Absorptance
  0.7,                                    !- Solar Absorptance
  0.7;                                    !- Visible Absorptance

Material,
  Generic Acoustic Tile,                  !- Name
  MediumSmooth,                           !- Roughness
  0.02,                                   !- Thickness {m}
  0.06,                                   !- Conductivity {W/m-K}
  368,                                    !- Density {kg/m3}
  590,                                    !- Specific Heat {J/kg-K}
  0.9,                                    !- Thermal Absorptance
  0.2,                                    !- Solar Absorptance
  0.2;                                    !- Visible Absorptance

Material,
  Generic Brick,                          !- Name
  MediumRough,                            !- Roughness
  0.1,                                    !- Thickness {m}
  0.9,                                    !- Conductivity {W/m-K}
  1920,                                   !- Density {kg/m3}
  790,                                    !- Specific Heat {J/kg-K}
  0.9,                                    !- Thermal Absorptance
  0.65,                                   !- Solar Absorptance
  0.65;                                   !- Visible Absorptance

Material,
  Generic Ceiling Air Gap,                !- Name
  Smooth,                                 !- Roughness
  0.1,                                    !- Thickness {m}
  0.556,                                  !- Conductivity {W/m-K}
  1.28,                                   !- Density {kg/m3}
  1000,                                   !- Specific Heat {J/kg-K}
  0.9,                                    !- Thermal Absorptance
  0.7,                                    !- Solar Absorptance
  0.7;                                    !- Visible Absorptance

Material,
  Generic Gypsum Board,                   !- Name
  MediumSmooth,                           !- Roughness
  0.0127,                                 !- Thickness {m}
  0.16,                                   !- Conductivity {W/m-K}
  800,                                    !- Density {kg/m3}
  1090,                                   !- Specific Heat {J/kg-K}
  0.9,                                    !- Thermal Absorptance
  0.5,                                    !- Solar Absorptance
  0.5;                                    !- Visible Absorptance

Material,
  Generic HW Concrete,                    !- Name
  MediumRough,                            !- Roughness
  0.2,                                    !- Thickness {m}
  1.95,                                   !- Conductivity {W/m-K}
  2240,                                   !- Density {kg/m3}
  900,                                    !- Specific Heat {J/kg-K}
  0.9,                                    !- Thermal Absorptance
  0.8,                                    !- Solar Absorptance
  0.8;                                    !- Visible Absorptance

Material,
  Generic LW Concrete,                    !- Name
  MediumRough,                            !- Roughness
  0.1,                                    !- Thickness {m}
  0.53,                                   !- Conductivity {W/m-K}
  1280,                                   !- Density {kg/m3}
  840,                                    !- Specific Heat {J/kg-K}
  0.9,                                    !- Thermal Absorptance
  0.8,                                    !- Solar Absorptance
  0.8;                                    !- Visible Absorptance

Material,
  Generic Painted Metal,                  !- Name
  Smooth,                                 !- Roughness
  0.0015,                                 !- Thickness {m}
  45,                                     !- Conductivity {W/m-K}
  7690,                                   !- Density {kg/m3}
  410,                                    !- Specific Heat {J/kg-K}
  0.9,                                    !- Thermal Absorptance
  0.5,                                    !- Solar Absorptance
  0.5;                                    !- Visible Absorptance

Material,
  Generic Roof Membrane,                  !- Name
  MediumRough,                            !- Roughness
  0.01,                                   !- Thickness {m}
  0.16,                                   !- Conductivity {W/m-K}
  1120,                                   !- Density {kg/m3}
  1460,                                   !- Specific Heat {J/kg-K}
  0.9,                                    !- Thermal Absorptance
  0.65,                                   !- Solar Absorptance
  0.65;                                   !- Visible Absorptance

Material,
  Generic Wall Air Gap,                   !- Name
  Smooth,                                 !- Roughness
  0.1,                                    !- Thickness {m}
  0.667,                                  !- Conductivity {W/m-K}
  1.28,                                   !- Density {kg/m3}
  1000,                                   !- Specific Heat {J/kg-K}
  0.9,                                    !- Thermal Absorptance
  0.7,                                    !- Solar Absorptance
  0.7;                                    !- Visible Absorptance

Material,
  Material 1,                             !- Name
  Smooth,                                 !- Roughness
  0.1,                                    !- Thickness {m}
  0.1,                                    !- Conductivity {W/m-K}
  0.1,                                    !- Density {kg/m3}
  100,                                    !- Specific Heat {J/kg-K}
  0.9,                                    !- Thermal Absorptance
  0.65,                                   !- Solar Absorptance
  0.65;                                   !- Visible Absorptance

Material,
  Material 2,                             !- Name
  Smooth,                                 !- Roughness
  0.1,                                    !- Thickness {m}
  0.1,                                    !- Conductivity {W/m-K}
  0.1,                                    !- Density {kg/m3}
  100,                                    !- Specific Heat {J/kg-K}
  0.9,                                    !- Thermal Absorptance
  0.8,                                    !- Solar Absorptance
  0.8;                                    !- Visible Absorptance

Material,
  wallU,                                  !- Name
  MediumRough,                            !- Roughness
  0.1,                                    !- Thickness {m}
  0.05,                                   !- Conductivity {W/m-K}
  2400,                                   !- Density {kg/m3}
  1400,                                   !- Specific Heat {J/kg-K}
  0.9,                                    !- Thermal Absorptance
  0.6,                                    !- Solar Absorptance
  0.6;                                    !- Visible Absorptance

WindowMaterial:Gas,
  Generic Window Air Gap,                 !- Name
  Air,                                    !- Gas Type
  0.0127;                                 !- Thickness {m}

WindowMaterial:Gas,
  Generic Window Argon Gap,               !- Name
  Argon,                                  !- Gas Type
  0.0127;                                 !- Thickness {m}

WindowMaterial:Glazing,
  Generic Clear Glass,                    !- Name
  SpectralAverage,                        !- Optical Data Type
  ,                                       !- Window Glass Spectral Data Set Name
  0.006,                                  !- Thickness {m}
  0.77,                                   !- Solar Transmittance at Normal Incidence
  0.07,                                   !- Front Side Solar Reflectance at Normal Incidence
  0.07,                                   !- Back Side Solar Reflectance at Normal Incidence
  0.88,                                   !- Visible Transmittance at Normal Incidence
  0.08,                                   !- Front Side Visible Reflectance at Normal Incidence
  0.08,                                   !- Back Side Visible Reflectance at Normal Incidence
  0,                                      !- Infrared Transmittance at Normal Incidence
  0.84,                                   !- Front Side Infrared Hemispherical Emissivity
  0.84,                                   !- Back Side Infrared Hemispherical Emissivity
  1,                                      !- Conductivity {W/m-K}
  1,                                      !- Dirt Correction Factor for Solar and Visible Transmittance
  No;                                     !- Solar Diffusing

WindowMaterial:Glazing,
  Generic Low-e Glass,                    !- Name
  SpectralAverage,                        !- Optical Data Type
  ,                                       !- Window Glass Spectral Data Set Name
  0.006,                                  !- Thickness {m}
  0.45,                                   !- Solar Transmittance at Normal Incidence
  0.36,                                   !- Front Side Solar Reflectance at Normal Incidence
  0.36,                                   !- Back Side Solar Reflectance at Normal Incidence
  0.71,                                   !- Visible Transmittance at Normal Incidence
  0.21,                                   !- Front Side Visible Reflectance at Normal Incidence
  0.21,                                   !- Back Side Visible Reflectance at Normal Incidence
  0,                                      !- Infrared Transmittance at Normal Incidence
  0.84,                                   !- Front Side Infrared Hemispherical Emissivity
  0.047,                                  !- Back Side Infrared Hemispherical Emissivity
  1,                                      !- Conductivity {W/m-K}
  1,                                      !- Dirt Correction Factor for Solar and Visible Transmittance
  No;                                     !- Solar Diffusing

WindowMaterial:SimpleGlazingSystem,
  WindowU,                                !- Name
  2.4,                                    !- U-Factor {W/m2-K}
  0.48,                                   !- Solar Heat Gain Coefficient
  0.744;                                  !- Visible Transmittance

Construction,
  Generic Context,                        !- Name
  Material 2;                             !- Layer 1

Construction,
  Generic Double Pane,                    !- Name
  Generic Low-e Glass,                    !- Layer 1
  Generic Window Air Gap,                 !- Layer 2
  Generic Clear Glass;                    !- Layer 3

Construction,
  Generic Exposed Floor,                  !- Name
  Generic Painted Metal,                  !- Layer 1
  Generic Ceiling Air Gap,                !- Layer 2
  Generic 50mm Insulation,                !- Layer 3
  Generic LW Concrete;                    !- Layer 4

Construction,
  Generic Exterior Door,                  !- Name
  Generic Painted Metal,                  !- Layer 1
  Generic 25mm Insulation,                !- Layer 2
  Generic Painted Metal;                  !- Layer 3

Construction,
  Generic Exterior Wall,                  !- Name
  Generic Brick,                          !- Layer 1
  Generic LW Concrete,                    !- Layer 2
  Generic 50mm Insulation,                !- Layer 3
  Generic Wall Air Gap,                   !- Layer 4
  Generic Gypsum Board;                   !- Layer 5

Construction,
  Generic Ground Slab,                    !- Name
  Generic 50mm Insulation,                !- Layer 1
  Generic HW Concrete;                    !- Layer 2

Construction,
  Generic Interior Ceiling,               !- Name
  Generic LW Concrete,                    !- Layer 1
  Generic Ceiling Air Gap,                !- Layer 2
  Generic Acoustic Tile;                  !- Layer 3

Construction,
  Generic Interior Door,                  !- Name
  Generic 25mm Wood;                      !- Layer 1

Construction,
  Generic Interior Floor,                 !- Name
  Generic Acoustic Tile,                  !- Layer 1
  Generic Ceiling Air Gap,                !- Layer 2
  Generic LW Concrete;                    !- Layer 3

Construction,
  Generic Interior Wall,                  !- Name
  Generic Gypsum Board,                   !- Layer 1
  Generic Wall Air Gap,                   !- Layer 2
  Generic Gypsum Board;                   !- Layer 3

Construction,
  Generic Roof,                           !- Name
  Generic Roof Membrane,                  !- Layer 1
  Generic 50mm Insulation,                !- Layer 2
  Generic LW Concrete,                    !- Layer 3
  Generic Ceiling Air Gap,                !- Layer 4
  Generic Acoustic Tile;                  !- Layer 5

Construction,
  Generic Shade,                          !- Name
  Material 1;                             !- Layer 1

Construction,
  Generic Single Pane,                    !- Name
  Generic Clear Glass;                    !- Layer 1

Construction,
  Generic Underground Roof,               !- Name
  Generic 50mm Insulation,                !- Layer 1
  Generic HW Concrete,                    !- Layer 2
  Generic Ceiling Air Gap,                !- Layer 3
  Generic Acoustic Tile;                  !- Layer 4

Construction,
  Generic Underground Wall,               !- Name
  Generic 50mm Insulation,                !- Layer 1
  Generic HW Concrete,                    !- Layer 2
  Generic Wall Air Gap,                   !- Layer 3
  Generic Gypsum Board;                   !- Layer 4

Construction,
  OpaqueConstruction_47cf3687,            !- Name
  wallU;                                  !- Layer 1

Construction,
  WindowConstruction_1dfe9b5d,            !- Name
  WindowU;                                !- Layer 1

Construction:AirBoundary,
  Generic Air Boundary,                   !- Name
  None,                                   !- Air Exchange Method
  0,                                      !- Simple Mixing Air Changes per Hour {1/hr}
  ;                                       !- Simple Mixing Schedule Name

ScheduleTypeLimits,
  OnOff,                                  !- Name
  0,                                      !- Lower Limit Value {BasedOnField A3}
  1,                                      !- Upper Limit Value {BasedOnField A3}
  Discrete,                               !- Numeric Type
  availability;                           !- Unit Type

Schedule:Day:Interval,
  Always On_Day Schedule,                 !- Name
  Fractional,                             !- Schedule Type Limits Name
  No,                                     !- Interpolate to Timestep
  24:00,                                  !- Time 1 {hh:mm}
  1;                                      !- Value Until Time 1

Schedule:Day:Interval,
  OfficeLarge INFIL_SCH_PNNL_Default,     !- Name
  Fractional,                             !- Schedule Type Limits Name
  No,                                     !- Interpolate to Timestep
  24:00,                                  !- Time 1 {hh:mm}
  1;                                      !- Value Until Time 1

Schedule:Day:Interval,
  OfficeLarge INFIL_SCH_PNNL_Sat,         !- Name
  Fractional,                             !- Schedule Type Limits Name
  No,                                     !- Interpolate to Timestep
  06:00,                                  !- Time 1 {hh:mm}
  1,                                      !- Value Until Time 1
  18:00,                                  !- Time 2 {hh:mm}
  0.25,                                   !- Value Until Time 2
  24:00,                                  !- Time 3 {hh:mm}
  1;                                      !- Value Until Time 3

Schedule:Day:Interval,
  OfficeLarge INFIL_SCH_PNNL_SmrDsn,      !- Name
  Fractional,                             !- Schedule Type Limits Name
  No,                                     !- Interpolate to Timestep
  06:00,                                  !- Time 1 {hh:mm}
  1,                                      !- Value Until Time 1
  22:00,                                  !- Time 2 {hh:mm}
  0.25,                                   !- Value Until Time 2
  24:00,                                  !- Time 3 {hh:mm}
  1;                                      !- Value Until Time 3

Schedule:Day:Interval,
  OfficeLarge INFIL_SCH_PNNL_SmrDsn 1,    !- Name
  Fractional,                             !- Schedule Type Limits Name
  No,                                     !- Interpolate to Timestep
  06:00,                                  !- Time 1 {hh:mm}
  1,                                      !- Value Until Time 1
  22:00,                                  !- Time 2 {hh:mm}
  0.25,                                   !- Value Until Time 2
  24:00,                                  !- Time 3 {hh:mm}
  1;                                      !- Value Until Time 3

Schedule:Day:Interval,
  OfficeLarge INFIL_SCH_PNNL_Wkdy,        !- Name
  Fractional,                             !- Schedule Type Limits Name
  No,                                     !- Interpolate to Timestep
  06:00,                                  !- Time 1 {hh:mm}
  1,                                      !- Value Until Time 1
  22:00,                                  !- Time 2 {hh:mm}
  0.25,                                   !- Value Until Time 2
  24:00,                                  !- Time 3 {hh:mm}
  1;                                      !- Value Until Time 3

Schedule:Day:Interval,
  OfficeLarge INFIL_SCH_PNNL_WntrDsn,     !- Name
  Fractional,                             !- Schedule Type Limits Name
  No,                                     !- Interpolate to Timestep
  06:00,                                  !- Time 1 {hh:mm}
  1,                                      !- Value Until Time 1
  18:00,                                  !- Time 2 {hh:mm}
  0.25,                                   !- Value Until Time 2
  24:00,                                  !- Time 3 {hh:mm}
  1;                                      !- Value Until Time 3

Schedule:Day:Interval,
  OfficeLarge INFIL_SCH_PNNL_WntrDsn 1,   !- Name
  Fractional,                             !- Schedule Type Limits Name
  No,                                     !- Interpolate to Timestep
  06:00,                                  !- Time 1 {hh:mm}
  1,                                      !- Value Until Time 1
  18:00,                                  !- Time 2 {hh:mm}
  0.25,                                   !- Value Until Time 2
  24:00,                                  !- Time 3 {hh:mm}
  1;                                      !- Value Until Time 3

Schedule:Day:Interval,
  Schedule Day 2,                         !- Name
  Fractional,                             !- Schedule Type Limits Name
  No,                                     !- Interpolate to Timestep
  06:00,                                  !- Time 1 {hh:mm}
  1,                                      !- Value Until Time 1
  22:00,                                  !- Time 2 {hh:mm}
  0.25,                                   !- Value Until Time 2
  24:00,                                  !- Time 3 {hh:mm}
  1;                                      !- Value Until Time 3

Schedule:Day:Interval,
  Schedule Day 3,                         !- Name
  Fractional,                             !- Schedule Type Limits Name
  No,                                     !- Interpolate to Timestep
  06:00,                                  !- Time 1 {hh:mm}
  1,                                      !- Value Until Time 1
  18:00,                                  !- Time 2 {hh:mm}
  0.25,                                   !- Value Until Time 2
  24:00,                                  !- Time 3 {hh:mm}
  1;                                      !- Value Until Time 3

Schedule:Day:Interval,
  WeeklySchedule_2856ceac_Hol,            !- Name
  On-Off,                                 !- Schedule Type Limits Name
  No,                                     !- Interpolate to Timestep
  24:00,                                  !- Time 1 {hh:mm}
  0;                                      !- Value Until Time 1

Schedule:Day:Interval,
  WeeklySchedule_2856ceac_Monday,         !- Name
  On-Off,                                 !- Schedule Type Limits Name
  No,                                     !- Interpolate to Timestep
  09:00,                                  !- Time 1 {hh:mm}
  0,                                      !- Value Until Time 1
  18:00,                                  !- Time 2 {hh:mm}
  1,                                      !- Value Until Time 2
  24:00,                                  !- Time 3 {hh:mm}
  0;                                      !- Value Until Time 3

Schedule:Day:Interval,
  WeeklySchedule_2856ceac_Monday_SmrDsn,  !- Name
  On-Off,                                 !- Schedule Type Limits Name
  No,                                     !- Interpolate to Timestep
  09:00,                                  !- Time 1 {hh:mm}
  0,                                      !- Value Until Time 1
  18:00,                                  !- Time 2 {hh:mm}
  1,                                      !- Value Until Time 2
  24:00,                                  !- Time 3 {hh:mm}
  0;                                      !- Value Until Time 3

Schedule:Day:Interval,
  WeeklySchedule_2856ceac_Monday_SmrDsn_WntrDsn, !- Name
  On-Off,                                 !- Schedule Type Limits Name
  No,                                     !- Interpolate to Timestep
  24:00,                                  !- Time 1 {hh:mm}
  0;                                      !- Value Until Time 1

Schedule:Day:Interval,
  WeeklySchedule_c66fc778_Hol,            !- Name
  Fractional,                             !- Schedule Type Limits Name
  No,                                     !- Interpolate to Timestep
  24:00,                                  !- Time 1 {hh:mm}
  0;                                      !- Value Until Time 1

Schedule:Day:Interval,
  WeeklySchedule_c66fc778_Monday,         !- Name
  Fractional,                             !- Schedule Type Limits Name
  No,                                     !- Interpolate to Timestep
  09:00,                                  !- Time 1 {hh:mm}
  0,                                      !- Value Until Time 1
  18:00,                                  !- Time 2 {hh:mm}
  1,                                      !- Value Until Time 2
  24:00,                                  !- Time 3 {hh:mm}
  0;                                      !- Value Until Time 3

Schedule:Day:Interval,
  WeeklySchedule_c66fc778_Monday_SmrDsn,  !- Name
  Fractional,                             !- Schedule Type Limits Name
  No,                                     !- Interpolate to Timestep
  09:00,                                  !- Time 1 {hh:mm}
  0,                                      !- Value Until Time 1
  18:00,                                  !- Time 2 {hh:mm}
  1,                                      !- Value Until Time 2
  24:00,                                  !- Time 3 {hh:mm}
  0;                                      !- Value Until Time 3

Schedule:Day:Interval,
  WeeklySchedule_c66fc778_Monday_SmrDsn_WntrDsn, !- Name
  Fractional,                             !- Schedule Type Limits Name
  No,                                     !- Interpolate to Timestep
  24:00,                                  !- Time 1 {hh:mm}
  0;                                      !- Value Until Time 1

Schedule:Week:Daily,
  Always On Week Rule - Jan1-Dec31,       !- Name
  Always On_Day Schedule,                 !- Sunday Schedule:Day Name
  Always On_Day Schedule,                 !- Monday Schedule:Day Name
  Always On_Day Schedule,                 !- Tuesday Schedule:Day Name
  Always On_Day Schedule,                 !- Wednesday Schedule:Day Name
  Always On_Day Schedule,                 !- Thursday Schedule:Day Name
  Always On_Day Schedule,                 !- Friday Schedule:Day Name
  Always On_Day Schedule,                 !- Saturday Schedule:Day Name
  Always On_Day Schedule,                 !- Holiday Schedule:Day Name
  Always On_Day Schedule,                 !- SummerDesignDay Schedule:Day Name
  Always On_Day Schedule,                 !- WinterDesignDay Schedule:Day Name
  Always On_Day Schedule,                 !- CustomDay1 Schedule:Day Name
  Always On_Day Schedule;                 !- CustomDay2 Schedule:Day Name

Schedule:Year,
  Always On,                              !- Name
  Fractional,                             !- Schedule Type Limits Name
  Always On Week Rule - Jan1-Dec31,       !- Schedule:Week Name 1
  1,                                      !- Start Month 1
  1,                                      !- Start Day 1
  12,                                     !- End Month 1
  31;                                     !- End Day 1

Schedule:Week:Daily,
  OfficeLarge INFIL_SCH_PNNL Week Rule - Jan1-Dec31, !- Name
  OfficeLarge INFIL_SCH_PNNL_Default,     !- Sunday Schedule:Day Name
  Schedule Day 2,                         !- Monday Schedule:Day Name
  Schedule Day 2,                         !- Tuesday Schedule:Day Name
  Schedule Day 2,                         !- Wednesday Schedule:Day Name
  Schedule Day 2,                         !- Thursday Schedule:Day Name
  Schedule Day 2,                         !- Friday Schedule:Day Name
  Schedule Day 3,                         !- Saturday Schedule:Day Name
  OfficeLarge INFIL_SCH_PNNL_Default,     !- Holiday Schedule:Day Name
  OfficeLarge INFIL_SCH_PNNL_SmrDsn 1,    !- SummerDesignDay Schedule:Day Name
  OfficeLarge INFIL_SCH_PNNL_WntrDsn 1,   !- WinterDesignDay Schedule:Day Name
  OfficeLarge INFIL_SCH_PNNL_Default,     !- CustomDay1 Schedule:Day Name
  OfficeLarge INFIL_SCH_PNNL_Default;     !- CustomDay2 Schedule:Day Name

Schedule:Year,
  OfficeLarge INFIL_SCH_PNNL,             !- Name
  Fractional,                             !- Schedule Type Limits Name
  OfficeLarge INFIL_SCH_PNNL Week Rule - Jan1-Dec31, !- Schedule:Week Name 1
  1,                                      !- Start Month 1
  1,                                      !- Start Day 1
  12,                                     !- End Month 1
  31;                                     !- End Day 1

Schedule:Constant,
  Always Off Discrete,                    !- Name
  ,                                       !- Schedule Type Limits Name
  0;                                      !- Hourly Value

Schedule:Constant,
  Always On Continuous,                   !- Name
  ,                                       !- Schedule Type Limits Name
  1;                                      !- Hourly Value

OutdoorAir:Node,
  Model Outdoor Air Node;                 !- Name

OutputControl:ReportingTolerances,
  1.11,                                   !- Tolerance for Time Heating Setpoint Not Met {deltaC}
  1.11;                                   !- Tolerance for Time Cooling Setpoint Not Met {deltaC}

Output:Table:SummaryReports,
  AllSummary;                             !- Report Name 1

Site:Location,
  Site 1,                                 !- Name
  0,                                      !- Latitude {deg}
  0,                                      !- Longitude {deg}
  0,                                      !- Time Zone {hr}
  0;                                      !- Elevation {m}

Site:WaterMainsTemperature,
  CorrelationFromWeatherFile;             !- Calculation Method

SizingPeriod:DesignDay,
  BEIJING/PEKING Ann Clg .4% Condns DB=>MWB, !- Name
  7,                                      !- Month
  21,                                     !- Day of Month
  SummerDesignDay,                        !- Day Type
  34.9,                                   !- Maximum Dry-Bulb Temperature {C}
  8.9,                                    !- Daily Dry-Bulb Temperature Range {deltaC}
  DefaultMultipliers,                     !- Dry-Bulb Temperature Range Modifier Type
  ,                                       !- Dry-Bulb Temperature Range Modifier Day Schedule Name
  Wetbulb,                                !- Humidity Condition Type
  22.2,                                   !- Wetbulb or DewPoint at Maximum Dry-Bulb {C}
  ,                                       !- Humidity Condition Day Schedule Name
  ,                                       !- Humidity Ratio at Maximum Dry-Bulb {kgWater/kgDryAir}
  ,                                       !- Enthalpy at Maximum Dry-Bulb {J/kg}
  ,                                       !- Daily Wet-Bulb Temperature Range {deltaC}
  100666,                                 !- Barometric Pressure {Pa}
  3.4,                                    !- Wind Speed {m/s}
  180,                                    !- Wind Direction {deg}
  No,                                     !- Rain Indicator
  No,                                     !- Snow Indicator
  No,                                     !- Daylight Saving Time Indicator
  ASHRAETau,                              !- Solar Model Indicator
  ,                                       !- Beam Solar Day Schedule Name
  ,                                       !- Diffuse Solar Day Schedule Name
  0.747,                                  !- ASHRAE Clear Sky Optical Depth for Beam Irradiance (taub) {dimensionless}
  1.448,                                  !- ASHRAE Clear Sky Optical Depth for Diffuse Irradiance (taud) {dimensionless}
  ,                                       !- Sky Clearness
  ,                                       !- Maximum Number Warmup Days
  FullResetAtBeginEnvironment;            !- Begin Environment Reset Mode

SizingPeriod:DesignDay,
  BEIJING/PEKING Ann Clg .4% Condns DP=>MDB, !- Name
  7,                                      !- Month
  21,                                     !- Day of Month
  SummerDesignDay,                        !- Day Type
  28.9,                                   !- Maximum Dry-Bulb Temperature {C}
  8.9,                                    !- Daily Dry-Bulb Temperature Range {deltaC}
  DefaultMultipliers,                     !- Dry-Bulb Temperature Range Modifier Type
  ,                                       !- Dry-Bulb Temperature Range Modifier Day Schedule Name
  Dewpoint,                               !- Humidity Condition Type
  26.1,                                   !- Wetbulb or DewPoint at Maximum Dry-Bulb {C}
  ,                                       !- Humidity Condition Day Schedule Name
  ,                                       !- Humidity Ratio at Maximum Dry-Bulb {kgWater/kgDryAir}
  ,                                       !- Enthalpy at Maximum Dry-Bulb {J/kg}
  ,                                       !- Daily Wet-Bulb Temperature Range {deltaC}
  100666,                                 !- Barometric Pressure {Pa}
  3.4,                                    !- Wind Speed {m/s}
  180,                                    !- Wind Direction {deg}
  No,                                     !- Rain Indicator
  No,                                     !- Snow Indicator
  No,                                     !- Daylight Saving Time Indicator
  ASHRAETau,                              !- Solar Model Indicator
  ,                                       !- Beam Solar Day Schedule Name
  ,                                       !- Diffuse Solar Day Schedule Name
  0.747,                                  !- ASHRAE Clear Sky Optical Depth for Beam Irradiance (taub) {dimensionless}
  1.448,                                  !- ASHRAE Clear Sky Optical Depth for Diffuse Irradiance (taud) {dimensionless}
  ,                                       !- Sky Clearness
  ,                                       !- Maximum Number Warmup Days
  FullResetAtBeginEnvironment;            !- Begin Environment Reset Mode

SizingPeriod:DesignDay,
  BEIJING/PEKING Ann Clg .4% Condns Enth=>MDB, !- Name
  7,                                      !- Month
  21,                                     !- Day of Month
  SummerDesignDay,                        !- Day Type
  30.1,                                   !- Maximum Dry-Bulb Temperature {C}
  8.9,                                    !- Daily Dry-Bulb Temperature Range {deltaC}
  DefaultMultipliers,                     !- Dry-Bulb Temperature Range Modifier Type
  ,                                       !- Dry-Bulb Temperature Range Modifier Day Schedule Name
  Enthalpy,                               !- Humidity Condition Type
  ,                                       !- Wetbulb or DewPoint at Maximum Dry-Bulb {C}
  ,                                       !- Humidity Condition Day Schedule Name
  ,                                       !- Humidity Ratio at Maximum Dry-Bulb {kgWater/kgDryAir}
  86200,                                  !- Enthalpy at Maximum Dry-Bulb {J/kg}
  ,                                       !- Daily Wet-Bulb Temperature Range {deltaC}
  100666,                                 !- Barometric Pressure {Pa}
  3.4,                                    !- Wind Speed {m/s}
  180,                                    !- Wind Direction {deg}
  No,                                     !- Rain Indicator
  No,                                     !- Snow Indicator
  No,                                     !- Daylight Saving Time Indicator
  ASHRAETau,                              !- Solar Model Indicator
  ,                                       !- Beam Solar Day Schedule Name
  ,                                       !- Diffuse Solar Day Schedule Name
  0.747,                                  !- ASHRAE Clear Sky Optical Depth for Beam Irradiance (taub) {dimensionless}
  1.448,                                  !- ASHRAE Clear Sky Optical Depth for Diffuse Irradiance (taud) {dimensionless}
  ,                                       !- Sky Clearness
  ,                                       !- Maximum Number Warmup Days
  FullResetAtBeginEnvironment;            !- Begin Environment Reset Mode

SizingPeriod:DesignDay,
  BEIJING/PEKING Ann Clg .4% Condns WB=>MDB, !- Name
  7,                                      !- Month
  21,                                     !- Day of Month
  SummerDesignDay,                        !- Day Type
  30.5,                                   !- Maximum Dry-Bulb Temperature {C}
  8.9,                                    !- Daily Dry-Bulb Temperature Range {deltaC}
  DefaultMultipliers,                     !- Dry-Bulb Temperature Range Modifier Type
  ,                                       !- Dry-Bulb Temperature Range Modifier Day Schedule Name
  Wetbulb,                                !- Humidity Condition Type
  27,                                     !- Wetbulb or DewPoint at Maximum Dry-Bulb {C}
  ,                                       !- Humidity Condition Day Schedule Name
  ,                                       !- Humidity Ratio at Maximum Dry-Bulb {kgWater/kgDryAir}
  ,                                       !- Enthalpy at Maximum Dry-Bulb {J/kg}
  ,                                       !- Daily Wet-Bulb Temperature Range {deltaC}
  100666,                                 !- Barometric Pressure {Pa}
  3.4,                                    !- Wind Speed {m/s}
  180,                                    !- Wind Direction {deg}
  No,                                     !- Rain Indicator
  No,                                     !- Snow Indicator
  No,                                     !- Daylight Saving Time Indicator
  ASHRAETau,                              !- Solar Model Indicator
  ,                                       !- Beam Solar Day Schedule Name
  ,                                       !- Diffuse Solar Day Schedule Name
  0.747,                                  !- ASHRAE Clear Sky Optical Depth for Beam Irradiance (taub) {dimensionless}
  1.448,                                  !- ASHRAE Clear Sky Optical Depth for Diffuse Irradiance (taud) {dimensionless}
  ,                                       !- Sky Clearness
  ,                                       !- Maximum Number Warmup Days
  FullResetAtBeginEnvironment;            !- Begin Environment Reset Mode

SizingPeriod:DesignDay,
  BEIJING/PEKING Ann Htg 99.6% Condns DB, !- Name
  1,                                      !- Month
  21,                                     !- Day of Month
  WinterDesignDay,                        !- Day Type
  -10.8,                                  !- Maximum Dry-Bulb Temperature {C}
  0,                                      !- Daily Dry-Bulb Temperature Range {deltaC}
  DefaultMultipliers,                     !- Dry-Bulb Temperature Range Modifier Type
  ,                                       !- Dry-Bulb Temperature Range Modifier Day Schedule Name
  Wetbulb,                                !- Humidity Condition Type
  -10.8,                                  !- Wetbulb or DewPoint at Maximum Dry-Bulb {C}
  ,                                       !- Humidity Condition Day Schedule Name
  ,                                       !- Humidity Ratio at Maximum Dry-Bulb {kgWater/kgDryAir}
  ,                                       !- Enthalpy at Maximum Dry-Bulb {J/kg}
  ,                                       !- Daily Wet-Bulb Temperature Range {deltaC}
  100666,                                 !- Barometric Pressure {Pa}
  2.2,                                    !- Wind Speed {m/s}
  340,                                    !- Wind Direction {deg}
  No,                                     !- Rain Indicator
  No,                                     !- Snow Indicator
  No,                                     !- Daylight Saving Time Indicator
  ASHRAEClearSky,                         !- Solar Model Indicator
  ,                                       !- Beam Solar Day Schedule Name
  ,                                       !- Diffuse Solar Day Schedule Name
  ,                                       !- ASHRAE Clear Sky Optical Depth for Beam Irradiance (taub) {dimensionless}
  ,                                       !- ASHRAE Clear Sky Optical Depth for Diffuse Irradiance (taud) {dimensionless}
  0,                                      !- Sky Clearness
  ,                                       !- Maximum Number Warmup Days
  FullResetAtBeginEnvironment;            !- Begin Environment Reset Mode

SizingPeriod:DesignDay,
  BEIJING/PEKING Ann Htg Wind 99.6% Condns WS=>MCDB, !- Name
  1,                                      !- Month
  21,                                     !- Day of Month
  WinterDesignDay,                        !- Day Type
  -1.6,                                   !- Maximum Dry-Bulb Temperature {C}
  0,                                      !- Daily Dry-Bulb Temperature Range {deltaC}
  DefaultMultipliers,                     !- Dry-Bulb Temperature Range Modifier Type
  ,                                       !- Dry-Bulb Temperature Range Modifier Day Schedule Name
  Wetbulb,                                !- Humidity Condition Type
  -1.6,                                   !- Wetbulb or DewPoint at Maximum Dry-Bulb {C}
  ,                                       !- Humidity Condition Day Schedule Name
  ,                                       !- Humidity Ratio at Maximum Dry-Bulb {kgWater/kgDryAir}
  ,                                       !- Enthalpy at Maximum Dry-Bulb {J/kg}
  ,                                       !- Daily Wet-Bulb Temperature Range {deltaC}
  100666,                                 !- Barometric Pressure {Pa}
  12,                                     !- Wind Speed {m/s}
  340,                                    !- Wind Direction {deg}
  No,                                     !- Rain Indicator
  No,                                     !- Snow Indicator
  No,                                     !- Daylight Saving Time Indicator
  ASHRAEClearSky,                         !- Solar Model Indicator
  ,                                       !- Beam Solar Day Schedule Name
  ,                                       !- Diffuse Solar Day Schedule Name
  ,                                       !- ASHRAE Clear Sky Optical Depth for Beam Irradiance (taub) {dimensionless}
  ,                                       !- ASHRAE Clear Sky Optical Depth for Diffuse Irradiance (taud) {dimensionless}
  0,                                      !- Sky Clearness
  ,                                       !- Maximum Number Warmup Days
  FullResetAtBeginEnvironment;            !- Begin Environment Reset Mode

SizingPeriod:DesignDay,
  BEIJING/PEKING Ann Hum_n 99.6% Condns DP=>MCDB, !- Name
  1,                                      !- Month
  21,                                     !- Day of Month
  WinterDesignDay,                        !- Day Type
  -4,                                     !- Maximum Dry-Bulb Temperature {C}
  0,                                      !- Daily Dry-Bulb Temperature Range {deltaC}
  DefaultMultipliers,                     !- Dry-Bulb Temperature Range Modifier Type
  ,                                       !- Dry-Bulb Temperature Range Modifier Day Schedule Name
  Dewpoint,                               !- Humidity Condition Type
  -30.1,                                  !- Wetbulb or DewPoint at Maximum Dry-Bulb {C}
  ,                                       !- Humidity Condition Day Schedule Name
  ,                                       !- Humidity Ratio at Maximum Dry-Bulb {kgWater/kgDryAir}
  ,                                       !- Enthalpy at Maximum Dry-Bulb {J/kg}
  ,                                       !- Daily Wet-Bulb Temperature Range {deltaC}
  100666,                                 !- Barometric Pressure {Pa}
  2.2,                                    !- Wind Speed {m/s}
  340,                                    !- Wind Direction {deg}
  No,                                     !- Rain Indicator
  No,                                     !- Snow Indicator
  No,                                     !- Daylight Saving Time Indicator
  ASHRAEClearSky,                         !- Solar Model Indicator
  ,                                       !- Beam Solar Day Schedule Name
  ,                                       !- Diffuse Solar Day Schedule Name
  ,                                       !- ASHRAE Clear Sky Optical Depth for Beam Irradiance (taub) {dimensionless}
  ,                                       !- ASHRAE Clear Sky Optical Depth for Diffuse Irradiance (taud) {dimensionless}
  0,                                      !- Sky Clearness
  ,                                       !- Maximum Number Warmup Days
  FullResetAtBeginEnvironment;            !- Begin Environment Reset Mode

Output:Variable,
  ,                                       !- Key Value
  Baseboard Electricity Energy,           !- Variable Name
  Hourly;                                 !- Reporting Frequency

Output:Variable,
  ,                                       !- Key Value
  District Cooling Chilled Water Energy,  !- Variable Name
  Hourly;                                 !- Reporting Frequency

Output:Variable,
  ,                                       !- Key Value
  District Heating Hot Water Energy,      !- Variable Name
  Hourly;                                 !- Reporting Frequency

Output:Variable,
  ,                                       !- Key Value
  Evaporative Cooler Electricity Energy,  !- Variable Name
  Hourly;                                 !- Reporting Frequency

Output:Variable,
  ,                                       !- Key Value
  Facility Net Purchased Electricity Energy, !- Variable Name
  Hourly;                                 !- Reporting Frequency

Output:Variable,
  ,                                       !- Key Value
  Facility Total Produced Electricity Energy, !- Variable Name
  Hourly;                                 !- Reporting Frequency

Output:Variable,
  ,                                       !- Key Value
  Fan Electricity Energy,                 !- Variable Name
  Hourly;                                 !- Reporting Frequency

Output:Variable,
  ,                                       !- Key Value
  Generator Produced DC Electricity Energy, !- Variable Name
  Hourly;                                 !- Reporting Frequency

Output:Variable,
  ,                                       !- Key Value
  Heating Coil Electricity Energy,        !- Variable Name
  Hourly;                                 !- Reporting Frequency

Output:Variable,
  ,                                       !- Key Value
  Heating Coil NaturalGas Energy,         !- Variable Name
  Hourly;                                 !- Reporting Frequency

Output:Variable,
  ,                                       !- Key Value
  Heating Coil Total Heating Energy,      !- Variable Name
  Hourly;                                 !- Reporting Frequency

Output:Variable,
  ,                                       !- Key Value
  Boiler Electricity Energy,              !- Variable Name
  Hourly;                                 !- Reporting Frequency

Output:Variable,
  ,                                       !- Key Value
  Hot_Water_Loop_Central_Air_Source_Heat_Pump Electricity Consumption, !- Variable Name
  Hourly;                                 !- Reporting Frequency

Output:Variable,
  ,                                       !- Key Value
  Humidifier Electricity Energy,          !- Variable Name
  Hourly;                                 !- Reporting Frequency

Output:Variable,
  ,                                       !- Key Value
  Pump Electricity Energy,                !- Variable Name
  Hourly;                                 !- Reporting Frequency

Output:Variable,
  ,                                       !- Key Value
  VRF Heat Pump Cooling Electricity Energy, !- Variable Name
  Hourly;                                 !- Reporting Frequency

Output:Variable,
  ,                                       !- Key Value
  VRF Heat Pump Crankcase Heater Electricity Energy, !- Variable Name
  Hourly;                                 !- Reporting Frequency

Output:Variable,
  ,                                       !- Key Value
  VRF Heat Pump Defrost Electricity Energy, !- Variable Name
  Hourly;                                 !- Reporting Frequency

Output:Variable,
  ,                                       !- Key Value
  VRF Heat Pump Heating Electricity Energy, !- Variable Name
  Hourly;                                 !- Reporting Frequency

Output:Variable,
  ,                                       !- Key Value
  Water Heater Electricity Energy,        !- Variable Name
  Hourly;                                 !- Reporting Frequency

Output:Variable,
  ,                                       !- Key Value
  Water Heater NaturalGas Energy,         !- Variable Name
  Hourly;                                 !- Reporting Frequency

Output:Variable,
  ,                                       !- Key Value
  Water Use Equipment Heating Energy,     !- Variable Name
  Hourly;                                 !- Reporting Frequency

Output:Variable,
  ,                                       !- Key Value
  Boiler NaturalGas Energy,               !- Variable Name
  Hourly;                                 !- Reporting Frequency

Output:Variable,
  ,                                       !- Key Value
  Zone Electric Equipment Electricity Energy, !- Variable Name
  Hourly;                                 !- Reporting Frequency

Output:Variable,
  ,                                       !- Key Value
  Zone Gas Equipment NaturalGas Energy,   !- Variable Name
  Hourly;                                 !- Reporting Frequency

Output:Variable,
  ,                                       !- Key Value
  Zone Ideal Loads Supply Air Total Cooling Energy, !- Variable Name
  Hourly;                                 !- Reporting Frequency

Output:Variable,
  ,                                       !- Key Value
  Zone Ideal Loads Supply Air Total Heating Energy, !- Variable Name
  Hourly;                                 !- Reporting Frequency

Output:Variable,
  ,                                       !- Key Value
  Zone Lights Electricity Energy,         !- Variable Name
  Hourly;                                 !- Reporting Frequency

Output:Variable,
  ,                                       !- Key Value
  Zone Other Equipment Lost Heat Energy,  !- Variable Name
  Hourly;                                 !- Reporting Frequency

Output:Variable,
  ,                                       !- Key Value
  Zone Other Equipment Total Heating Energy, !- Variable Name
  Hourly;                                 !- Reporting Frequency

Output:Variable,
  ,                                       !- Key Value
  Zone VRF Air Terminal Cooling Electricity Energy, !- Variable Name
  Hourly;                                 !- Reporting Frequency

Output:Variable,
  ,                                       !- Key Value
  Zone VRF Air Terminal Heating Electricity Energy, !- Variable Name
  Hourly;                                 !- Reporting Frequency

Output:Variable,
  ,                                       !- Key Value
  Zone Ventilation Fan Electricity Energy, !- Variable Name
  Hourly;                                 !- Reporting Frequency

Output:Variable,
  ,                                       !- Key Value
  Chiller Electricity Energy,             !- Variable Name
  Hourly;                                 !- Reporting Frequency

Output:Variable,
  ,                                       !- Key Value
  Chiller Heater System Cooling Electricity Energy, !- Variable Name
  Hourly;                                 !- Reporting Frequency

Output:Variable,
  ,                                       !- Key Value
  Chiller Heater System Heating Electricity Energy, !- Variable Name
  Hourly;                                 !- Reporting Frequency

Output:Variable,
  ,                                       !- Key Value
  Cooling Coil Electricity Energy,        !- Variable Name
  Hourly;                                 !- Reporting Frequency

Output:Variable,
  ,                                       !- Key Value
  Cooling Coil Water Heating Electricity Energy, !- Variable Name
  Hourly;                                 !- Reporting Frequency

Output:Variable,
  ,                                       !- Key Value
  Cooling Tower Fan Electricity Energy,   !- Variable Name
  Hourly;                                 !- Reporting Frequency

OutputControl:Table:Style,
  HTML;                                   !- Column Separator

Output:VariableDictionary,
  IDF,                                    !- Key Field
  Unsorted;                               !- Sort Option

Output:SQLite,
  SimpleAndTabular;                       !- Option Type

LifeCycleCost:NonrecurringCost,
  Default Cost,                           !- Name
  Construction,                           !- Category
  0,                                      !- Cost
  ServicePeriod;                          !- Start of Costs

