
Version,
  24.2;                                   !- Version Identifier

Timestep,
  6;                                      !- Number of Timesteps per Hour

LifeCycleCost:Parameters,
  Life Cycle Cost Parameters,             !- Name
  EndOfYear,                              !- Discounting Convention
  ConstantDollar,                         !- Inflation Approach
  0.03,                                   !- Real Discount Rate
  ,                                       !- Nominal Discount Rate
  ,                                       !- Inflation
  ,                                       !- Base Date Month
  2011,                                   !- Base Date Year
  ,                                       !- Service Date Month
  2011,                                   !- Service Date Year
  25,                                     !- Length of Study Period in Years
  ,                                       !- Tax rate
  None;                                   !- Depreciation Method

LifeCycleCost:UsePriceEscalation,
  U.S. Avg  Commercial-Electricity,       !- Name
  Electricity,                            !- Resource
  2011,                                   !- Escalation Start Year
  January,                                !- Escalation Start Month
  0.9838,                                 !- Year Escalation 1
  0.9730,                                 !- Year Escalation 2
  0.9632,                                 !- Year Escalation 3
  0.9611,                                 !- Year Escalation 4
  0.9571,                                 !- Year Escalation 5
  0.9553,                                 !- Year Escalation 6
  0.9539,                                 !- Year Escalation 7
  0.9521,                                 !- Year Escalation 8
  0.9546,                                 !- Year Escalation 9
  0.9550,                                 !- Year Escalation 10
  0.9553,                                 !- Year Escalation 11
  0.9564,                                 !- Year Escalation 12
  0.9575,                                 !- Year Escalation 13
  0.9596,                                 !- Year Escalation 14
  0.9618,                                 !- Year Escalation 15
  0.9614,                                 !- Year Escalation 16
  0.9618,                                 !- Year Escalation 17
  0.9618,                                 !- Year Escalation 18
  0.9593,                                 !- Year Escalation 19
  0.9589,                                 !- Year Escalation 20
  0.9607,                                 !- Year Escalation 21
  0.9625,                                 !- Year Escalation 22
  0.9650,                                 !- Year Escalation 23
  0.9708,                                 !- Year Escalation 24
  0.9751,                                 !- Year Escalation 25
  0.9762,                                 !- Year Escalation 26
  0.9766,                                 !- Year Escalation 27
  0.9766,                                 !- Year Escalation 28
  0.9769,                                 !- Year Escalation 29
  0.9773;                                 !- Year Escalation 30

LifeCycleCost:UsePriceEscalation,
  U.S. Avg  Commercial-Distillate Oil,    !- Name
  FuelOilNo1,                             !- Resource
  2011,                                   !- Escalation Start Year
  January,                                !- Escalation Start Month
  0.9714,                                 !- Year Escalation 1
  0.9730,                                 !- Year Escalation 2
  0.9942,                                 !- Year Escalation 3
  1.0164,                                 !- Year Escalation 4
  1.0541,                                 !- Year Escalation 5
  1.0928,                                 !- Year Escalation 6
  1.1267,                                 !- Year Escalation 7
  1.1580,                                 !- Year Escalation 8
  1.1792,                                 !- Year Escalation 9
  1.1967,                                 !- Year Escalation 10
  1.2200,                                 !- Year Escalation 11
  1.2333,                                 !- Year Escalation 12
  1.2566,                                 !- Year Escalation 13
  1.2709,                                 !- Year Escalation 14
  1.2826,                                 !- Year Escalation 15
  1.2985,                                 !- Year Escalation 16
  1.3102,                                 !- Year Escalation 17
  1.3250,                                 !- Year Escalation 18
  1.3261,                                 !- Year Escalation 19
  1.3282,                                 !- Year Escalation 20
  1.3324,                                 !- Year Escalation 21
  1.3356,                                 !- Year Escalation 22
  1.3431,                                 !- Year Escalation 23
  1.3510,                                 !- Year Escalation 24
  1.3568,                                 !- Year Escalation 25
  1.3606,                                 !- Year Escalation 26
  1.3637,                                 !- Year Escalation 27
  1.3674,                                 !- Year Escalation 28
  1.3706,                                 !- Year Escalation 29
  1.3743;                                 !- Year Escalation 30

LifeCycleCost:UsePriceEscalation,
  U.S. Avg  Commercial-Residual Oil,      !- Name
  FuelOilNo2,                             !- Resource
  2011,                                   !- Escalation Start Year
  January,                                !- Escalation Start Month
  0.8469,                                 !- Year Escalation 1
  0.8257,                                 !- Year Escalation 2
  0.8681,                                 !- Year Escalation 3
  0.8988,                                 !- Year Escalation 4
  0.9289,                                 !- Year Escalation 5
  0.9604,                                 !- Year Escalation 6
  0.9897,                                 !- Year Escalation 7
  1.0075,                                 !- Year Escalation 8
  1.0314,                                 !- Year Escalation 9
  1.0554,                                 !- Year Escalation 10
  1.0861,                                 !- Year Escalation 11
  1.1278,                                 !- Year Escalation 12
  1.1497,                                 !- Year Escalation 13
  1.1620,                                 !- Year Escalation 14
  1.1743,                                 !- Year Escalation 15
  1.1852,                                 !- Year Escalation 16
  1.1948,                                 !- Year Escalation 17
  1.2037,                                 !- Year Escalation 18
  1.2071,                                 !- Year Escalation 19
  1.2119,                                 !- Year Escalation 20
  1.2139,                                 !- Year Escalation 21
  1.2194,                                 !- Year Escalation 22
  1.2276,                                 !- Year Escalation 23
  1.2365,                                 !- Year Escalation 24
  1.2420,                                 !- Year Escalation 25
  1.2461,                                 !- Year Escalation 26
  1.2509,                                 !- Year Escalation 27
  1.2550,                                 !- Year Escalation 28
  1.2591,                                 !- Year Escalation 29
  1.2638;                                 !- Year Escalation 30

LifeCycleCost:UsePriceEscalation,
  U.S. Avg  Commercial-Natural gas,       !- Name
  NaturalGas,                             !- Resource
  2011,                                   !- Escalation Start Year
  January,                                !- Escalation Start Month
  0.9823,                                 !- Year Escalation 1
  0.9557,                                 !- Year Escalation 2
  0.9279,                                 !- Year Escalation 3
  0.9257,                                 !- Year Escalation 4
  0.9346,                                 !- Year Escalation 5
  0.9412,                                 !- Year Escalation 6
  0.9512,                                 !- Year Escalation 7
  0.9645,                                 !- Year Escalation 8
  0.9856,                                 !- Year Escalation 9
  1.0067,                                 !- Year Escalation 10
  1.0222,                                 !- Year Escalation 11
  1.0410,                                 !- Year Escalation 12
  1.0610,                                 !- Year Escalation 13
  1.0787,                                 !- Year Escalation 14
  1.0942,                                 !- Year Escalation 15
  1.1098,                                 !- Year Escalation 16
  1.1220,                                 !- Year Escalation 17
  1.1308,                                 !- Year Escalation 18
  1.1386,                                 !- Year Escalation 19
  1.1486,                                 !- Year Escalation 20
  1.1619,                                 !- Year Escalation 21
  1.1763,                                 !- Year Escalation 22
  1.1918,                                 !- Year Escalation 23
  1.2118,                                 !- Year Escalation 24
  1.2284,                                 !- Year Escalation 25
  1.2439,                                 !- Year Escalation 26
  1.2605,                                 !- Year Escalation 27
  1.2772,                                 !- Year Escalation 28
  1.2938,                                 !- Year Escalation 29
  1.3115;                                 !- Year Escalation 30

LifeCycleCost:UsePriceEscalation,
  U.S. Avg  Commercial-Coal,              !- Name
  Coal,                                   !- Resource
  2011,                                   !- Escalation Start Year
  January,                                !- Escalation Start Month
  0.9970,                                 !- Year Escalation 1
  1.0089,                                 !- Year Escalation 2
  1.0089,                                 !- Year Escalation 3
  0.9941,                                 !- Year Escalation 4
  0.9941,                                 !- Year Escalation 5
  1.0000,                                 !- Year Escalation 6
  1.0030,                                 !- Year Escalation 7
  1.0059,                                 !- Year Escalation 8
  1.0089,                                 !- Year Escalation 9
  1.0119,                                 !- Year Escalation 10
  1.0148,                                 !- Year Escalation 11
  1.0178,                                 !- Year Escalation 12
  1.0208,                                 !- Year Escalation 13
  1.0267,                                 !- Year Escalation 14
  1.0297,                                 !- Year Escalation 15
  1.0356,                                 !- Year Escalation 16
  1.0415,                                 !- Year Escalation 17
  1.0534,                                 !- Year Escalation 18
  1.0564,                                 !- Year Escalation 19
  1.0593,                                 !- Year Escalation 20
  1.0653,                                 !- Year Escalation 21
  1.0712,                                 !- Year Escalation 22
  1.0742,                                 !- Year Escalation 23
  1.0801,                                 !- Year Escalation 24
  1.0831,                                 !- Year Escalation 25
  1.0831,                                 !- Year Escalation 26
  1.0861,                                 !- Year Escalation 27
  1.0890,                                 !- Year Escalation 28
  1.0920,                                 !- Year Escalation 29
  1.0950;                                 !- Year Escalation 30

Building,
  unnamed,                                !- Name
  0,                                      !- North Axis {deg}
  City,                                   !- Terrain
  ,                                       !- Loads Convergence Tolerance Value {W}
  ,                                       !- Temperature Convergence Tolerance Value {deltaC}
  FullExteriorWithReflections,            !- Solar Distribution
  ,                                       !- Maximum Number of Warmup Days
  ;                                       !- Minimum Number of Warmup Days

Zone,
  Room_142_d52ef896,                      !- Name
  ,                                       !- Direction of Relative North {deg}
  0,                                      !- X Origin {m}
  0,                                      !- Y Origin {m}
  0,                                      !- Z Origin {m}
  ,                                       !- Type
  1,                                      !- Multiplier
  4.05199154028423,                       !- Ceiling Height {m}
  141.082112566713,                       !- Volume {m3}
  ,                                       !- Floor Area {m2}
  ,                                       !- Zone Inside Convection Algorithm
  ,                                       !- Zone Outside Convection Algorithm
  Yes;                                    !- Part of Total Floor Area

Space,
  Room_142_d52ef896_Space,                !- Name
  Room_142_d52ef896,                      !- Zone Name
  ,                                       !- Ceiling Height {m}
  141.082112566713,                       !- Volume {m3}
  ,                                       !- Floor Area {m2}
  Generic Office Program;                 !- Space Type

SpaceList,
  Generic Office Program,                 !- Name
  Room_142_d52ef896_Space;                !- Space Name 1

Lights,
  Generic Office Lighting,                !- Name
  Generic Office Program,                 !- Zone or ZoneList or Space or SpaceList Name
  Generic Office Lighting,                !- Schedule Name
  Watts/Area,                             !- Design Level Calculation Method
  ,                                       !- Lighting Level {W}
  10.55,                                  !- Watts per Floor Area {W/m2}
  ,                                       !- Watts per Person {W/person}
  0,                                      !- Return Air Fraction
  0.7,                                    !- Fraction Radiant
  0.2,                                    !- Fraction Visible
  1,                                      !- Fraction Replaceable
  General;                                !- End-Use Subcategory

ScheduleTypeLimits,
  Fractional,                             !- Name
  0,                                      !- Lower Limit Value {BasedOnField A3}
  1,                                      !- Upper Limit Value {BasedOnField A3}
  Continuous;                             !- Numeric Type

Schedule:Day:Interval,
  OfficeMedium BLDG_LIGHT_SCH_2013_Sun,   !- Name
  Fractional,                             !- Schedule Type Limits Name
  No,                                     !- Interpolate to Timestep
  06:00,                                  !- Time 1 {hh:mm}
  0.05,                                   !- Value Until Time 1
  18:00,                                  !- Time 2 {hh:mm}
  0.04311628,                             !- Value Until Time 2
  24:00,                                  !- Time 3 {hh:mm}
  0.05;                                   !- Value Until Time 3

Schedule:Day:Interval,
  {6aa95866-e12d-4210-9432-cc97e10d4a6d}, !- Name
  Fractional,                             !- Schedule Type Limits Name
  No,                                     !- Interpolate to Timestep
  05:00,                                  !- Time 1 {hh:mm}
  0.05,                                   !- Value Until Time 1
  06:00,                                  !- Time 2 {hh:mm}
  0.1,                                    !- Value Until Time 2
  07:00,                                  !- Time 3 {hh:mm}
  0.08623256,                             !- Value Until Time 3
  08:00,                                  !- Time 4 {hh:mm}
  0.25869768,                             !- Value Until Time 4
  17:00,                                  !- Time 5 {hh:mm}
  0.77609304,                             !- Value Until Time 5
  18:00,                                  !- Time 6 {hh:mm}
  0.4311628,                              !- Value Until Time 6
  20:00,                                  !- Time 7 {hh:mm}
  0.25869768,                             !- Value Until Time 7
  22:00,                                  !- Time 8 {hh:mm}
  0.17246512,                             !- Value Until Time 8
  23:00,                                  !- Time 9 {hh:mm}
  0.08623256,                             !- Value Until Time 9
  24:00,                                  !- Time 10 {hh:mm}
  0.04311628;                             !- Value Until Time 10

Schedule:Day:Interval,
  {25d2f745-8e8a-4861-a614-50eb5c37b7f5}, !- Name
  Fractional,                             !- Schedule Type Limits Name
  No,                                     !- Interpolate to Timestep
  06:00,                                  !- Time 1 {hh:mm}
  0.05,                                   !- Value Until Time 1
  08:00,                                  !- Time 2 {hh:mm}
  0.08623256,                             !- Value Until Time 2
  12:00,                                  !- Time 3 {hh:mm}
  0.25869768,                             !- Value Until Time 3
  17:00,                                  !- Time 4 {hh:mm}
  0.12934884,                             !- Value Until Time 4
  19:00,                                  !- Time 5 {hh:mm}
  0.04311628,                             !- Value Until Time 5
  24:00,                                  !- Time 6 {hh:mm}
  0.05;                                   !- Value Until Time 6

Schedule:Week:Daily,
  Generic Office Lighting Week Rule - Jan1-Dec31, !- Name
  OfficeMedium BLDG_LIGHT_SCH_2013_Sun,   !- Sunday Schedule:Day Name
  {6aa95866-e12d-4210-9432-cc97e10d4a6d}, !- Monday Schedule:Day Name
  {6aa95866-e12d-4210-9432-cc97e10d4a6d}, !- Tuesday Schedule:Day Name
  {6aa95866-e12d-4210-9432-cc97e10d4a6d}, !- Wednesday Schedule:Day Name
  {6aa95866-e12d-4210-9432-cc97e10d4a6d}, !- Thursday Schedule:Day Name
  {6aa95866-e12d-4210-9432-cc97e10d4a6d}, !- Friday Schedule:Day Name
  {25d2f745-8e8a-4861-a614-50eb5c37b7f5}, !- Saturday Schedule:Day Name
  {a66ccba2-98ed-4678-9bdd-337322fb4b7f}, !- Holiday Schedule:Day Name
  {7bc8db8d-8286-4b0a-a501-57aebb03b059}, !- SummerDesignDay Schedule:Day Name
  {94435e4e-ddf0-477b-98b8-576813459eeb}, !- WinterDesignDay Schedule:Day Name
  OfficeMedium BLDG_LIGHT_SCH_2013_Sun,   !- CustomDay1 Schedule:Day Name
  OfficeMedium BLDG_LIGHT_SCH_2013_Sun;   !- CustomDay2 Schedule:Day Name

Schedule:Year,
  Generic Office Lighting,                !- Name
  Fractional,                             !- Schedule Type Limits Name
  Generic Office Lighting Week Rule - Jan1-Dec31, !- Schedule:Week Name 1
  1,                                      !- Start Month 1
  1,                                      !- Start Day 1
  12,                                     !- End Month 1
  31;                                     !- End Day 1

Schedule:Day:Interval,
  {7bc8db8d-8286-4b0a-a501-57aebb03b059}, !- Name
  Fractional,                             !- Schedule Type Limits Name
  No,                                     !- Interpolate to Timestep
  24:00,                                  !- Time 1 {hh:mm}
  1;                                      !- Value Until Time 1

Schedule:Day:Interval,
  {94435e4e-ddf0-477b-98b8-576813459eeb}, !- Name
  Fractional,                             !- Schedule Type Limits Name
  No,                                     !- Interpolate to Timestep
  24:00,                                  !- Time 1 {hh:mm}
  0;                                      !- Value Until Time 1

Schedule:Day:Interval,
  {a66ccba2-98ed-4678-9bdd-337322fb4b7f}, !- Name
  Fractional,                             !- Schedule Type Limits Name
  No,                                     !- Interpolate to Timestep
  06:00,                                  !- Time 1 {hh:mm}
  0.05,                                   !- Value Until Time 1
  08:00,                                  !- Time 2 {hh:mm}
  0.08623256,                             !- Value Until Time 2
  12:00,                                  !- Time 3 {hh:mm}
  0.25869768,                             !- Value Until Time 3
  17:00,                                  !- Time 4 {hh:mm}
  0.12934884,                             !- Value Until Time 4
  19:00,                                  !- Time 5 {hh:mm}
  0.04311628,                             !- Value Until Time 5
  24:00,                                  !- Time 6 {hh:mm}
  0.05;                                   !- Value Until Time 6

People,
  Generic Office People,                  !- Name
  Generic Office Program,                 !- Zone or ZoneList or Space or SpaceList Name
  Generic Office Occupancy,               !- Number of People Schedule Name
  People/Area,                            !- Number of People Calculation Method
  ,                                       !- Number of People
  0.0565,                                 !- People per Floor Area {person/m2}
  ,                                       !- Floor Area per Person {m2/person}
  0.3,                                    !- Fraction Radiant
  ,                                       !- Sensible Heat Fraction
  Seated Adult Activity;                  !- Activity Level Schedule Name

Schedule:Day:Interval,
  OfficeMedium BLDG_OCC_SCH_Default,      !- Name
  Fractional,                             !- Schedule Type Limits Name
  No,                                     !- Interpolate to Timestep
  06:00,                                  !- Time 1 {hh:mm}
  0,                                      !- Value Until Time 1
  18:00,                                  !- Time 2 {hh:mm}
  0.05,                                   !- Value Until Time 2
  24:00,                                  !- Time 3 {hh:mm}
  0;                                      !- Value Until Time 3

Schedule:Day:Interval,
  {5fd557a6-b88b-4418-8ace-78c018fc04e3}, !- Name
  Fractional,                             !- Schedule Type Limits Name
  No,                                     !- Interpolate to Timestep
  06:00,                                  !- Time 1 {hh:mm}
  0,                                      !- Value Until Time 1
  07:00,                                  !- Time 2 {hh:mm}
  0.1,                                    !- Value Until Time 2
  08:00,                                  !- Time 3 {hh:mm}
  0.2,                                    !- Value Until Time 3
  12:00,                                  !- Time 4 {hh:mm}
  0.95,                                   !- Value Until Time 4
  13:00,                                  !- Time 5 {hh:mm}
  0.5,                                    !- Value Until Time 5
  17:00,                                  !- Time 6 {hh:mm}
  0.95,                                   !- Value Until Time 6
  18:00,                                  !- Time 7 {hh:mm}
  0.3,                                    !- Value Until Time 7
  22:00,                                  !- Time 8 {hh:mm}
  0.1,                                    !- Value Until Time 8
  24:00,                                  !- Time 9 {hh:mm}
  0.05;                                   !- Value Until Time 9

Schedule:Day:Interval,
  {55b4a021-b89d-44f1-b363-44394845d88b}, !- Name
  Fractional,                             !- Schedule Type Limits Name
  No,                                     !- Interpolate to Timestep
  06:00,                                  !- Time 1 {hh:mm}
  0,                                      !- Value Until Time 1
  08:00,                                  !- Time 2 {hh:mm}
  0.1,                                    !- Value Until Time 2
  12:00,                                  !- Time 3 {hh:mm}
  0.3,                                    !- Value Until Time 3
  17:00,                                  !- Time 4 {hh:mm}
  0.1,                                    !- Value Until Time 4
  19:00,                                  !- Time 5 {hh:mm}
  0.05,                                   !- Value Until Time 5
  24:00,                                  !- Time 6 {hh:mm}
  0;                                      !- Value Until Time 6

Schedule:Week:Daily,
  Generic Office Occupancy Week Rule - Jan1-Dec31, !- Name
  OfficeMedium BLDG_OCC_SCH_Default,      !- Sunday Schedule:Day Name
  {5fd557a6-b88b-4418-8ace-78c018fc04e3}, !- Monday Schedule:Day Name
  {5fd557a6-b88b-4418-8ace-78c018fc04e3}, !- Tuesday Schedule:Day Name
  {5fd557a6-b88b-4418-8ace-78c018fc04e3}, !- Wednesday Schedule:Day Name
  {5fd557a6-b88b-4418-8ace-78c018fc04e3}, !- Thursday Schedule:Day Name
  {5fd557a6-b88b-4418-8ace-78c018fc04e3}, !- Friday Schedule:Day Name
  {55b4a021-b89d-44f1-b363-44394845d88b}, !- Saturday Schedule:Day Name
  {301ebe95-e461-42b8-8647-54bcf42c2460}, !- Holiday Schedule:Day Name
  {80cceef0-5e07-4538-a649-c25290df0389}, !- SummerDesignDay Schedule:Day Name
  {b160db9b-725a-422a-8ece-aedfb05cfb3b}, !- WinterDesignDay Schedule:Day Name
  OfficeMedium BLDG_OCC_SCH_Default,      !- CustomDay1 Schedule:Day Name
  OfficeMedium BLDG_OCC_SCH_Default;      !- CustomDay2 Schedule:Day Name

Schedule:Year,
  Generic Office Occupancy,               !- Name
  Fractional,                             !- Schedule Type Limits Name
  Generic Office Occupancy Week Rule - Jan1-Dec31, !- Schedule:Week Name 1
  1,                                      !- Start Month 1
  1,                                      !- Start Day 1
  12,                                     !- End Month 1
  31;                                     !- End Day 1

Schedule:Day:Interval,
  {80cceef0-5e07-4538-a649-c25290df0389}, !- Name
  Fractional,                             !- Schedule Type Limits Name
  No,                                     !- Interpolate to Timestep
  06:00,                                  !- Time 1 {hh:mm}
  0,                                      !- Value Until Time 1
  22:00,                                  !- Time 2 {hh:mm}
  1,                                      !- Value Until Time 2
  24:00,                                  !- Time 3 {hh:mm}
  0.05;                                   !- Value Until Time 3

Schedule:Day:Interval,
  {b160db9b-725a-422a-8ece-aedfb05cfb3b}, !- Name
  Fractional,                             !- Schedule Type Limits Name
  No,                                     !- Interpolate to Timestep
  24:00,                                  !- Time 1 {hh:mm}
  0;                                      !- Value Until Time 1

Schedule:Day:Interval,
  {301ebe95-e461-42b8-8647-54bcf42c2460}, !- Name
  Fractional,                             !- Schedule Type Limits Name
  No,                                     !- Interpolate to Timestep
  06:00,                                  !- Time 1 {hh:mm}
  0,                                      !- Value Until Time 1
  18:00,                                  !- Time 2 {hh:mm}
  0.05,                                   !- Value Until Time 2
  24:00,                                  !- Time 3 {hh:mm}
  0;                                      !- Value Until Time 3

ScheduleTypeLimits,
  Activity Level,                         !- Name
  0,                                      !- Lower Limit Value {BasedOnField A3}
  ,                                       !- Upper Limit Value {BasedOnField A3}
  Continuous,                             !- Numeric Type
  activitylevel;                          !- Unit Type

Schedule:Day:Interval,
  Seated Adult Activity_Day Schedule,     !- Name
  Activity Level,                         !- Schedule Type Limits Name
  No,                                     !- Interpolate to Timestep
  24:00,                                  !- Time 1 {hh:mm}
  120;                                    !- Value Until Time 1

Schedule:Week:Daily,
  Seated Adult Activity Week Rule - Jan1-Dec31, !- Name
  Seated Adult Activity_Day Schedule,     !- Sunday Schedule:Day Name
  Seated Adult Activity_Day Schedule,     !- Monday Schedule:Day Name
  Seated Adult Activity_Day Schedule,     !- Tuesday Schedule:Day Name
  Seated Adult Activity_Day Schedule,     !- Wednesday Schedule:Day Name
  Seated Adult Activity_Day Schedule,     !- Thursday Schedule:Day Name
  Seated Adult Activity_Day Schedule,     !- Friday Schedule:Day Name
  Seated Adult Activity_Day Schedule,     !- Saturday Schedule:Day Name
  Seated Adult Activity_Day Schedule,     !- Holiday Schedule:Day Name
  Seated Adult Activity_Day Schedule,     !- SummerDesignDay Schedule:Day Name
  Seated Adult Activity_Day Schedule,     !- WinterDesignDay Schedule:Day Name
  Seated Adult Activity_Day Schedule,     !- CustomDay1 Schedule:Day Name
  Seated Adult Activity_Day Schedule;     !- CustomDay2 Schedule:Day Name

Schedule:Year,
  Seated Adult Activity,                  !- Name
  Activity Level,                         !- Schedule Type Limits Name
  Seated Adult Activity Week Rule - Jan1-Dec31, !- Schedule:Week Name 1
  1,                                      !- Start Month 1
  1,                                      !- Start Day 1
  12,                                     !- End Month 1
  31;                                     !- End Day 1

ElectricEquipment,
  Generic Office Equipment,               !- Name
  Generic Office Program,                 !- Zone or ZoneList or Space or SpaceList Name
  Generic Office Equipment,               !- Schedule Name
  Watts/Area,                             !- Design Level Calculation Method
  ,                                       !- Design Level {W}
  10.33,                                  !- Watts per Floor Area {W/m2}
  ,                                       !- Watts per Person {W/person}
  0,                                      !- Fraction Latent
  0.5,                                    !- Fraction Radiant
  0,                                      !- Fraction Lost
  Electric Equipment;                     !- End-Use Subcategory

Schedule:Day:Interval,
  OfficeMedium BLDG_EQUIP_SCH_2013_Sun,   !- Name
  Fractional,                             !- Schedule Type Limits Name
  No,                                     !- Interpolate to Timestep
  06:00,                                  !- Time 1 {hh:mm}
  0.2307553806,                           !- Value Until Time 1
  18:00,                                  !- Time 2 {hh:mm}
  0.288107175,                            !- Value Until Time 2
  24:00,                                  !- Time 3 {hh:mm}
  0.2307553806;                           !- Value Until Time 3

Schedule:Day:Interval,
  {f53d8333-1bcd-4791-9cfb-cd35069d0924}, !- Name
  Fractional,                             !- Schedule Type Limits Name
  No,                                     !- Interpolate to Timestep
  06:00,                                  !- Time 1 {hh:mm}
  0.3076738408,                           !- Value Until Time 1
  08:00,                                  !- Time 2 {hh:mm}
  0.381234796,                            !- Value Until Time 2
  12:00,                                  !- Time 3 {hh:mm}
  0.857778291,                            !- Value Until Time 3
  13:00,                                  !- Time 4 {hh:mm}
  0.762469592,                            !- Value Until Time 4
  17:00,                                  !- Time 5 {hh:mm}
  0.857778291,                            !- Value Until Time 5
  18:00,                                  !- Time 6 {hh:mm}
  0.476543495,                            !- Value Until Time 6
  24:00,                                  !- Time 7 {hh:mm}
  0.381234796;                            !- Value Until Time 7

Schedule:Day:Interval,
  {416cfa71-aa04-42aa-a32e-04d1c90926d5}, !- Name
  Fractional,                             !- Schedule Type Limits Name
  No,                                     !- Interpolate to Timestep
  06:00,                                  !- Time 1 {hh:mm}
  0.2307553806,                           !- Value Until Time 1
  08:00,                                  !- Time 2 {hh:mm}
  0.381234796,                            !- Value Until Time 2
  12:00,                                  !- Time 3 {hh:mm}
  0.476543495,                            !- Value Until Time 3
  17:00,                                  !- Time 4 {hh:mm}
  0.3335804465,                           !- Value Until Time 4
  19:00,                                  !- Time 5 {hh:mm}
  0.285926097,                            !- Value Until Time 5
  24:00,                                  !- Time 6 {hh:mm}
  0.2307553806;                           !- Value Until Time 6

Schedule:Week:Daily,
  Generic Office Equipment Week Rule - Jan1-Dec31, !- Name
  OfficeMedium BLDG_EQUIP_SCH_2013_Sun,   !- Sunday Schedule:Day Name
  {f53d8333-1bcd-4791-9cfb-cd35069d0924}, !- Monday Schedule:Day Name
  {f53d8333-1bcd-4791-9cfb-cd35069d0924}, !- Tuesday Schedule:Day Name
  {f53d8333-1bcd-4791-9cfb-cd35069d0924}, !- Wednesday Schedule:Day Name
  {f53d8333-1bcd-4791-9cfb-cd35069d0924}, !- Thursday Schedule:Day Name
  {f53d8333-1bcd-4791-9cfb-cd35069d0924}, !- Friday Schedule:Day Name
  {416cfa71-aa04-42aa-a32e-04d1c90926d5}, !- Saturday Schedule:Day Name
  {89abefaa-31e6-441a-9cc3-f393af21e9d8}, !- Holiday Schedule:Day Name
  {37ebba94-3f4d-4e88-9ff1-f7219e4f7f2e}, !- SummerDesignDay Schedule:Day Name
  {c4b0967b-8b7e-4a88-8b6c-8e0585933a7f}, !- WinterDesignDay Schedule:Day Name
  OfficeMedium BLDG_EQUIP_SCH_2013_Sun,   !- CustomDay1 Schedule:Day Name
  OfficeMedium BLDG_EQUIP_SCH_2013_Sun;   !- CustomDay2 Schedule:Day Name

Schedule:Year,
  Generic Office Equipment,               !- Name
  Fractional,                             !- Schedule Type Limits Name
  Generic Office Equipment Week Rule - Jan1-Dec31, !- Schedule:Week Name 1
  1,                                      !- Start Month 1
  1,                                      !- Start Day 1
  12,                                     !- End Month 1
  31;                                     !- End Day 1

Schedule:Day:Interval,
  {37ebba94-3f4d-4e88-9ff1-f7219e4f7f2e}, !- Name
  Fractional,                             !- Schedule Type Limits Name
  No,                                     !- Interpolate to Timestep
  24:00,                                  !- Time 1 {hh:mm}
  1;                                      !- Value Until Time 1

Schedule:Day:Interval,
  {c4b0967b-8b7e-4a88-8b6c-8e0585933a7f}, !- Name
  Fractional,                             !- Schedule Type Limits Name
  No,                                     !- Interpolate to Timestep
  24:00,                                  !- Time 1 {hh:mm}
  0;                                      !- Value Until Time 1

Schedule:Day:Interval,
  {89abefaa-31e6-441a-9cc3-f393af21e9d8}, !- Name
  Fractional,                             !- Schedule Type Limits Name
  No,                                     !- Interpolate to Timestep
  06:00,                                  !- Time 1 {hh:mm}
  0.2307553806,                           !- Value Until Time 1
  08:00,                                  !- Time 2 {hh:mm}
  0.381234796,                            !- Value Until Time 2
  12:00,                                  !- Time 3 {hh:mm}
  0.476543495,                            !- Value Until Time 3
  17:00,                                  !- Time 4 {hh:mm}
  0.3335804465,                           !- Value Until Time 4
  19:00,                                  !- Time 5 {hh:mm}
  0.285926097,                            !- Value Until Time 5
  24:00,                                  !- Time 6 {hh:mm}
  0.2307553806;                           !- Value Until Time 6

ZoneInfiltration:DesignFlowRate,
  Generic Office Infiltration,            !- Name
  Generic Office Program,                 !- Zone or ZoneList or Space or SpaceList Name
  Generic Office Infiltration,            !- Schedule Name
  Flow/ExteriorArea,                      !- Design Flow Rate Calculation Method
  ,                                       !- Design Flow Rate {m3/s}
  ,                                       !- Flow Rate per Floor Area {m3/s-m2}
  0.0002266,                              !- Flow Rate per Exterior Surface Area {m3/s-m2}
  ,                                       !- Air Changes per Hour {1/hr}
  1,                                      !- Constant Term Coefficient
  0,                                      !- Temperature Term Coefficient
  0,                                      !- Velocity Term Coefficient
  ;                                       !- Velocity Squared Term Coefficient

BuildingSurface:Detailed,
  Room_142_d52ef896..Face0,               !- Name
  Wall,                                   !- Surface Type
  Generic Exterior Wall,                  !- Construction Name
  Room_142_d52ef896,                      !- Zone Name
  Room_142_d52ef896_Space,                !- Space Name
  Outdoors,                               !- Outside Boundary Condition
  ,                                       !- Outside Boundary Condition Object
  SunExposed,                             !- Sun Exposure
  WindExposed,                            !- Wind Exposure
  ,                                       !- View Factor to Ground
  ,                                       !- Number of Vertices
  -0.0799955795342147, -2.47819778487012, 4.05199154028423, !- X,Y,Z Vertex 1 {m}
  -0.0799955795342147, -2.47819778487012, 0, !- X,Y,Z Vertex 2 {m}
  5.9293582488613, -2.47819778487012, 0,  !- X,Y,Z Vertex 3 {m}
  5.9293582488613, -2.47819778487012, 4.05199154028423; !- X,Y,Z Vertex 4 {m}

FenestrationSurface:Detailed,
  Room_142_d52ef896..Face0_Glz0,          !- Name
  Window,                                 !- Surface Type
  Generic Double Pane,                    !- Construction Name
  Room_142_d52ef896..Face0,               !- Building Surface Name
  ,                                       !- Outside Boundary Condition Object
  ,                                       !- View Factor to Ground
  ,                                       !- Frame and Divider Name
  ,                                       !- Multiplier
  ,                                       !- Number of Vertices
  -0.0199020412502593, -2.47819778487012, 2.86734262259399, !- X,Y,Z Vertex 1 {m}
  -0.0199020412502593, -2.47819778487012, 0.8, !- X,Y,Z Vertex 2 {m}
  5.86926471057734, -2.47819778487012, 0.8, !- X,Y,Z Vertex 3 {m}
  5.86926471057734, -2.47819778487012, 2.86734262259399; !- X,Y,Z Vertex 4 {m}

BuildingSurface:Detailed,
  Room_142_d52ef896..Face1,               !- Name
  Wall,                                   !- Surface Type
  Generic Exterior Wall,                  !- Construction Name
  Room_142_d52ef896,                      !- Zone Name
  Room_142_d52ef896_Space,                !- Space Name
  Outdoors,                               !- Outside Boundary Condition
  ,                                       !- Outside Boundary Condition Object
  SunExposed,                             !- Sun Exposure
  WindExposed,                            !- Wind Exposure
  ,                                       !- View Factor to Ground
  ,                                       !- Number of Vertices
  5.9293582488613, -2.47819778487012, 4.05199154028423, !- X,Y,Z Vertex 1 {m}
  5.9293582488613, -2.47819778487012, 0,  !- X,Y,Z Vertex 2 {m}
  5.9293582488613, 3.31576429274616, 0,   !- X,Y,Z Vertex 3 {m}
  5.9293582488613, 3.31576429274616, 4.05199154028423; !- X,Y,Z Vertex 4 {m}

BuildingSurface:Detailed,
  Room_142_d52ef896..Face2,               !- Name
  Wall,                                   !- Surface Type
  Generic Exterior Wall,                  !- Construction Name
  Room_142_d52ef896,                      !- Zone Name
  Room_142_d52ef896_Space,                !- Space Name
  Outdoors,                               !- Outside Boundary Condition
  ,                                       !- Outside Boundary Condition Object
  SunExposed,                             !- Sun Exposure
  WindExposed,                            !- Wind Exposure
  ,                                       !- View Factor to Ground
  ,                                       !- Number of Vertices
  5.9293582488613, 3.31576429274616, 4.05199154028423, !- X,Y,Z Vertex 1 {m}
  5.9293582488613, 3.31576429274616, 0,   !- X,Y,Z Vertex 2 {m}
  -0.0799955795342147, 3.31576429274616, 0, !- X,Y,Z Vertex 3 {m}
  -0.0799955795342147, 3.31576429274616, 4.05199154028423; !- X,Y,Z Vertex 4 {m}

BuildingSurface:Detailed,
  Room_142_d52ef896..Face3,               !- Name
  Wall,                                   !- Surface Type
  Generic Exterior Wall,                  !- Construction Name
  Room_142_d52ef896,                      !- Zone Name
  Room_142_d52ef896_Space,                !- Space Name
  Outdoors,                               !- Outside Boundary Condition
  ,                                       !- Outside Boundary Condition Object
  SunExposed,                             !- Sun Exposure
  WindExposed,                            !- Wind Exposure
  ,                                       !- View Factor to Ground
  ,                                       !- Number of Vertices
  -0.0799955795342147, 3.31576429274616, 4.05199154028423, !- X,Y,Z Vertex 1 {m}
  -0.0799955795342147, 3.31576429274616, 0, !- X,Y,Z Vertex 2 {m}
  -0.0799955795342147, -2.47819778487012, 0, !- X,Y,Z Vertex 3 {m}
  -0.0799955795342147, -2.47819778487012, 4.05199154028423; !- X,Y,Z Vertex 4 {m}

BuildingSurface:Detailed,
  Room_142_d52ef896..Face4,               !- Name
  Floor,                                  !- Surface Type
  Generic Ground Slab,                    !- Construction Name
  Room_142_d52ef896,                      !- Zone Name
  Room_142_d52ef896_Space,                !- Space Name
  Ground,                                 !- Outside Boundary Condition
  ,                                       !- Outside Boundary Condition Object
  NoSun,                                  !- Sun Exposure
  NoWind,                                 !- Wind Exposure
  ,                                       !- View Factor to Ground
  ,                                       !- Number of Vertices
  5.9293582488613, 3.31576429274616, 0,   !- X,Y,Z Vertex 1 {m}
  5.9293582488613, -2.47819778487012, 0,  !- X,Y,Z Vertex 2 {m}
  -0.0799955795342147, -2.47819778487012, 0, !- X,Y,Z Vertex 3 {m}
  -0.0799955795342147, 3.31576429274616, 0; !- X,Y,Z Vertex 4 {m}

BuildingSurface:Detailed,
  Room_142_d52ef896..Face5,               !- Name
  Roof,                                   !- Surface Type
  Generic Roof,                           !- Construction Name
  Room_142_d52ef896,                      !- Zone Name
  Room_142_d52ef896_Space,                !- Space Name
  Outdoors,                               !- Outside Boundary Condition
  ,                                       !- Outside Boundary Condition Object
  SunExposed,                             !- Sun Exposure
  WindExposed,                            !- Wind Exposure
  ,                                       !- View Factor to Ground
  ,                                       !- Number of Vertices
  -0.0799955795342147, 3.31576429274616, 4.05199154028423, !- X,Y,Z Vertex 1 {m}
  -0.0799955795342147, -2.47819778487012, 4.05199154028423, !- X,Y,Z Vertex 2 {m}
  5.9293582488613, -2.47819778487012, 4.05199154028423, !- X,Y,Z Vertex 3 {m}
  5.9293582488613, 3.31576429274616, 4.05199154028423; !- X,Y,Z Vertex 4 {m}

ZoneControl:Thermostat,
  Room_142_d52ef896 Thermostat,           !- Name
  Room_142_d52ef896,                      !- Zone or ZoneList Name
  Room_142_d52ef896 Thermostat Schedule,  !- Control Type Schedule Name
  ThermostatSetpoint:DualSetpoint,        !- Control 1 Object Type
  Generic Office Setpoints..Room_142_d52ef896, !- Control 1 Name
  ,                                       !- Control 2 Object Type
  ,                                       !- Control 2 Name
  ,                                       !- Control 3 Object Type
  ,                                       !- Control 3 Name
  ,                                       !- Control 4 Object Type
  ,                                       !- Control 4 Name
  0;                                      !- Temperature Difference Between Cutout And Setpoint {deltaC}

Schedule:Compact,
  Room_142_d52ef896 Thermostat Schedule,  !- Name
  Room_142_d52ef896 Thermostat Schedule Type Limits, !- Schedule Type Limits Name
  Through: 12/31,                         !- Field 1
  For: AllDays,                           !- Field 2
  Until: 24:00,                           !- Field 3
  4;                                      !- Field 4

ScheduleTypeLimits,
  Room_142_d52ef896 Thermostat Schedule Type Limits, !- Name
  0,                                      !- Lower Limit Value {BasedOnField A3}
  4,                                      !- Upper Limit Value {BasedOnField A3}
  DISCRETE;                               !- Numeric Type

ThermostatSetpoint:DualSetpoint,
  Generic Office Setpoints..Room_142_d52ef896, !- Name
  Generic Office Heating,                 !- Heating Setpoint Temperature Schedule Name
  Generic Office Cooling;                 !- Cooling Setpoint Temperature Schedule Name

ScheduleTypeLimits,
  Temperature,                            !- Name
  -273.15,                                !- Lower Limit Value {BasedOnField A3}
  ,                                       !- Upper Limit Value {BasedOnField A3}
  Continuous,                             !- Numeric Type
  temperature;                            !- Unit Type

Schedule:Day:Interval,
  OfficeMedium HTGSETP_SCH_YES_OPTIMUM_Default, !- Name
  Temperature,                            !- Schedule Type Limits Name
  No,                                     !- Interpolate to Timestep
  24:00,                                  !- Time 1 {hh:mm}
  15.6;                                   !- Value Until Time 1

Schedule:Day:Interval,
  {e82a7f74-9ce4-4070-8672-d90ba90a5677}, !- Name
  Temperature,                            !- Schedule Type Limits Name
  No,                                     !- Interpolate to Timestep
  05:00,                                  !- Time 1 {hh:mm}
  15.6,                                   !- Value Until Time 1
  06:00,                                  !- Time 2 {hh:mm}
  17.8,                                   !- Value Until Time 2
  07:00,                                  !- Time 3 {hh:mm}
  20,                                     !- Value Until Time 3
  22:00,                                  !- Time 4 {hh:mm}
  21,                                     !- Value Until Time 4
  24:00,                                  !- Time 5 {hh:mm}
  15.6;                                   !- Value Until Time 5

Schedule:Day:Interval,
  {c2fc7f2a-e310-44ab-9ddd-0f5cfe838ee2}, !- Name
  Temperature,                            !- Schedule Type Limits Name
  No,                                     !- Interpolate to Timestep
  05:00,                                  !- Time 1 {hh:mm}
  15.6,                                   !- Value Until Time 1
  06:00,                                  !- Time 2 {hh:mm}
  17.8,                                   !- Value Until Time 2
  07:00,                                  !- Time 3 {hh:mm}
  20,                                     !- Value Until Time 3
  17:00,                                  !- Time 4 {hh:mm}
  21,                                     !- Value Until Time 4
  24:00,                                  !- Time 5 {hh:mm}
  15.6;                                   !- Value Until Time 5

Schedule:Week:Daily,
  Generic Office Heating Week Rule - Jan1-Dec31, !- Name
  OfficeMedium HTGSETP_SCH_YES_OPTIMUM_Default, !- Sunday Schedule:Day Name
  {e82a7f74-9ce4-4070-8672-d90ba90a5677}, !- Monday Schedule:Day Name
  {e82a7f74-9ce4-4070-8672-d90ba90a5677}, !- Tuesday Schedule:Day Name
  {e82a7f74-9ce4-4070-8672-d90ba90a5677}, !- Wednesday Schedule:Day Name
  {e82a7f74-9ce4-4070-8672-d90ba90a5677}, !- Thursday Schedule:Day Name
  {e82a7f74-9ce4-4070-8672-d90ba90a5677}, !- Friday Schedule:Day Name
  {c2fc7f2a-e310-44ab-9ddd-0f5cfe838ee2}, !- Saturday Schedule:Day Name
  {3cc9cb44-86b1-410c-8427-ede2c699a9cc}, !- Holiday Schedule:Day Name
  {4f1b3fca-0ea6-4c75-b7b7-e1f47f8fcd55}, !- SummerDesignDay Schedule:Day Name
  {5b1522d9-f251-450f-95df-bf6bf444b985}, !- WinterDesignDay Schedule:Day Name
  OfficeMedium HTGSETP_SCH_YES_OPTIMUM_Default, !- CustomDay1 Schedule:Day Name
  OfficeMedium HTGSETP_SCH_YES_OPTIMUM_Default; !- CustomDay2 Schedule:Day Name

Schedule:Year,
  Generic Office Heating,                 !- Name
  Temperature,                            !- Schedule Type Limits Name
  Generic Office Heating Week Rule - Jan1-Dec31, !- Schedule:Week Name 1
  1,                                      !- Start Month 1
  1,                                      !- Start Day 1
  12,                                     !- End Month 1
  31;                                     !- End Day 1

Schedule:Day:Interval,
  {4f1b3fca-0ea6-4c75-b7b7-e1f47f8fcd55}, !- Name
  Temperature,                            !- Schedule Type Limits Name
  No,                                     !- Interpolate to Timestep
  24:00,                                  !- Time 1 {hh:mm}
  15.6;                                   !- Value Until Time 1

Schedule:Day:Interval,
  {5b1522d9-f251-450f-95df-bf6bf444b985}, !- Name
  Temperature,                            !- Schedule Type Limits Name
  No,                                     !- Interpolate to Timestep
  05:00,                                  !- Time 1 {hh:mm}
  15.6,                                   !- Value Until Time 1
  06:00,                                  !- Time 2 {hh:mm}
  17.6,                                   !- Value Until Time 2
  07:00,                                  !- Time 3 {hh:mm}
  19.6,                                   !- Value Until Time 3
  22:00,                                  !- Time 4 {hh:mm}
  21,                                     !- Value Until Time 4
  24:00,                                  !- Time 5 {hh:mm}
  15.6;                                   !- Value Until Time 5

Schedule:Day:Interval,
  {3cc9cb44-86b1-410c-8427-ede2c699a9cc}, !- Name
  Temperature,                            !- Schedule Type Limits Name
  No,                                     !- Interpolate to Timestep
  24:00,                                  !- Time 1 {hh:mm}
  15.6;                                   !- Value Until Time 1

Schedule:Day:Interval,
  OfficeMedium CLGSETP_SCH_YES_OPTIMUM_Default, !- Name
  Temperature,                            !- Schedule Type Limits Name
  No,                                     !- Interpolate to Timestep
  24:00,                                  !- Time 1 {hh:mm}
  26.7;                                   !- Value Until Time 1

Schedule:Day:Interval,
  {d011218c-327b-4d33-a9f6-0d056eaef5c6}, !- Name
  Temperature,                            !- Schedule Type Limits Name
  No,                                     !- Interpolate to Timestep
  05:00,                                  !- Time 1 {hh:mm}
  26.7,                                   !- Value Until Time 1
  06:00,                                  !- Time 2 {hh:mm}
  25.6,                                   !- Value Until Time 2
  07:00,                                  !- Time 3 {hh:mm}
  25,                                     !- Value Until Time 3
  22:00,                                  !- Time 4 {hh:mm}
  24,                                     !- Value Until Time 4
  24:00,                                  !- Time 5 {hh:mm}
  26.7;                                   !- Value Until Time 5

Schedule:Day:Interval,
  {9f9ce91d-8738-4dbe-8757-8f3a1d014839}, !- Name
  Temperature,                            !- Schedule Type Limits Name
  No,                                     !- Interpolate to Timestep
  05:00,                                  !- Time 1 {hh:mm}
  26.7,                                   !- Value Until Time 1
  06:00,                                  !- Time 2 {hh:mm}
  25.7,                                   !- Value Until Time 2
  07:00,                                  !- Time 3 {hh:mm}
  25,                                     !- Value Until Time 3
  17:00,                                  !- Time 4 {hh:mm}
  24,                                     !- Value Until Time 4
  24:00,                                  !- Time 5 {hh:mm}
  26.7;                                   !- Value Until Time 5

Schedule:Week:Daily,
  Generic Office Cooling Week Rule - Jan1-Dec31, !- Name
  OfficeMedium CLGSETP_SCH_YES_OPTIMUM_Default, !- Sunday Schedule:Day Name
  {d011218c-327b-4d33-a9f6-0d056eaef5c6}, !- Monday Schedule:Day Name
  {d011218c-327b-4d33-a9f6-0d056eaef5c6}, !- Tuesday Schedule:Day Name
  {d011218c-327b-4d33-a9f6-0d056eaef5c6}, !- Wednesday Schedule:Day Name
  {d011218c-327b-4d33-a9f6-0d056eaef5c6}, !- Thursday Schedule:Day Name
  {d011218c-327b-4d33-a9f6-0d056eaef5c6}, !- Friday Schedule:Day Name
  {9f9ce91d-8738-4dbe-8757-8f3a1d014839}, !- Saturday Schedule:Day Name
  {39e1bbbf-e1b5-44fd-a38c-4f947fd33776}, !- Holiday Schedule:Day Name
  {6376681c-3759-4f73-99ea-abfbee85c891}, !- SummerDesignDay Schedule:Day Name
  {addb4944-1bdf-48f5-9ec7-f5446de47c65}, !- WinterDesignDay Schedule:Day Name
  OfficeMedium CLGSETP_SCH_YES_OPTIMUM_Default, !- CustomDay1 Schedule:Day Name
  OfficeMedium CLGSETP_SCH_YES_OPTIMUM_Default; !- CustomDay2 Schedule:Day Name

Schedule:Year,
  Generic Office Cooling,                 !- Name
  Temperature,                            !- Schedule Type Limits Name
  Generic Office Cooling Week Rule - Jan1-Dec31, !- Schedule:Week Name 1
  1,                                      !- Start Month 1
  1,                                      !- Start Day 1
  12,                                     !- End Month 1
  31;                                     !- End Day 1

Schedule:Day:Interval,
  {6376681c-3759-4f73-99ea-abfbee85c891}, !- Name
  Temperature,                            !- Schedule Type Limits Name
  No,                                     !- Interpolate to Timestep
  05:00,                                  !- Time 1 {hh:mm}
  26.7,                                   !- Value Until Time 1
  06:00,                                  !- Time 2 {hh:mm}
  25.7,                                   !- Value Until Time 2
  07:00,                                  !- Time 3 {hh:mm}
  25,                                     !- Value Until Time 3
  22:00,                                  !- Time 4 {hh:mm}
  24,                                     !- Value Until Time 4
  24:00,                                  !- Time 5 {hh:mm}
  26.7;                                   !- Value Until Time 5

Schedule:Day:Interval,
  {addb4944-1bdf-48f5-9ec7-f5446de47c65}, !- Name
  Temperature,                            !- Schedule Type Limits Name
  No,                                     !- Interpolate to Timestep
  24:00,                                  !- Time 1 {hh:mm}
  26.7;                                   !- Value Until Time 1

Schedule:Day:Interval,
  {39e1bbbf-e1b5-44fd-a38c-4f947fd33776}, !- Name
  Temperature,                            !- Schedule Type Limits Name
  No,                                     !- Interpolate to Timestep
  24:00,                                  !- Time 1 {hh:mm}
  26.7;                                   !- Value Until Time 1

ZoneHVAC:EquipmentConnections,
  Room_142_d52ef896,                      !- Zone Name
  Room_142_d52ef896 Equipment List,       !- Zone Conditioning Equipment List Name
  Room_142_d52ef896 Inlet Node List,      !- Zone Air Inlet Node or NodeList Name
  Room_142_d52ef896 Exhaust Node List,    !- Zone Air Exhaust Node or NodeList Name
  {6c55b09f-c902-44ee-a45f-18434692e80f}; !- Zone Air Node Name

NodeList,
  Room_142_d52ef896 Inlet Node List,      !- Name
  {bc752539-7853-44c7-87c7-e53755092bdd}; !- Node Name 1

NodeList,
  Room_142_d52ef896 Exhaust Node List,    !- Name
  {08946b81-c5f1-4a7e-a331-a42ce812d3cb}; !- Node Name 1

ZoneHVAC:IdealLoadsAirSystem,
  Room_142_d52ef896 Ideal Loads Air System, !- Name
  ,                                       !- Availability Schedule Name
  {bc752539-7853-44c7-87c7-e53755092bdd}, !- Zone Supply Air Node Name
  {08946b81-c5f1-4a7e-a331-a42ce812d3cb}, !- Zone Exhaust Air Node Name
  ,                                       !- System Inlet Air Node Name
  50,                                     !- Maximum Heating Supply Air Temperature {C}
  13,                                     !- Minimum Cooling Supply Air Temperature {C}
  ,                                       !- Maximum Heating Supply Air Humidity Ratio {kgWater/kgDryAir}
  ,                                       !- Minimum Cooling Supply Air Humidity Ratio {kgWater/kgDryAir}
  LimitCapacity,                          !- Heating Limit
  ,                                       !- Maximum Heating Air Flow Rate {m3/s}
  Autosize,                               !- Maximum Sensible Heating Capacity {W}
  LimitFlowRateAndCapacity,               !- Cooling Limit
  Autosize,                               !- Maximum Cooling Air Flow Rate {m3/s}
  Autosize,                               !- Maximum Total Cooling Capacity {W}
  ,                                       !- Heating Availability Schedule Name
  ,                                       !- Cooling Availability Schedule Name
  None,                                   !- Dehumidification Control Type
  ,                                       !- Cooling Sensible Heat Ratio {dimensionless}
  ,                                       !- Humidification Control Type
  Generic Office Ventilation,             !- Design Specification Outdoor Air Object Name
  ,                                       !- Outdoor Air Inlet Node Name
  None,                                   !- Demand Controlled Ventilation Type
  DifferentialDryBulb,                    !- Outdoor Air Economizer Type
  ,                                       !- Heat Recovery Type
  0,                                      !- Sensible Heat Recovery Effectiveness {dimensionless}
  0;                                      !- Latent Heat Recovery Effectiveness {dimensionless}

DesignSpecification:OutdoorAir,
  Generic Office Ventilation,             !- Name
  Sum,                                    !- Outdoor Air Method
  0.00236,                                !- Outdoor Air Flow per Person {m3/s-person}
  0.000305,                               !- Outdoor Air Flow per Zone Floor Area {m3/s-m2}
  0,                                      !- Outdoor Air Flow per Zone {m3/s}
  0;                                      !- Outdoor Air Flow Air Changes per Hour {1/hr}

ZoneHVAC:EquipmentList,
  Room_142_d52ef896 Equipment List,       !- Name
  SequentialLoad,                         !- Load Distribution Scheme
  ZoneHVAC:IdealLoadsAirSystem,           !- Zone Equipment Object Type 1
  Room_142_d52ef896 Ideal Loads Air System, !- Zone Equipment Name 1
  1,                                      !- Zone Equipment Cooling Sequence 1
  1,                                      !- Zone Equipment Heating or No-Load Sequence 1
  ,                                       !- Zone Equipment Sequential Cooling Fraction Schedule Name 1
  ;                                       !- Zone Equipment Sequential Heating Fraction Schedule Name 1

Sizing:Zone,
  Room_142_d52ef896,                      !- Zone or ZoneList Name
  SupplyAirTemperature,                   !- Zone Cooling Design Supply Air Temperature Input Method
  14,                                     !- Zone Cooling Design Supply Air Temperature {C}
  11.11,                                  !- Zone Cooling Design Supply Air Temperature Difference {deltaC}
  SupplyAirTemperature,                   !- Zone Heating Design Supply Air Temperature Input Method
  40,                                     !- Zone Heating Design Supply Air Temperature {C}
  11.11,                                  !- Zone Heating Design Supply Air Temperature Difference {deltaC}
  0.0085,                                 !- Zone Cooling Design Supply Air Humidity Ratio {kgWater/kgDryAir}
  0.008,                                  !- Zone Heating Design Supply Air Humidity Ratio {kgWater/kgDryAir}
  Room_142_d52ef896 DSOA Space List,      !- Design Specification Outdoor Air Object Name
  ,                                       !- Zone Heating Sizing Factor
  ,                                       !- Zone Cooling Sizing Factor
  DesignDay,                              !- Cooling Design Air Flow Method
  0,                                      !- Cooling Design Air Flow Rate {m3/s}
  0.000762,                               !- Cooling Minimum Air Flow per Zone Floor Area {m3/s-m2}
  0,                                      !- Cooling Minimum Air Flow {m3/s}
  0,                                      !- Cooling Minimum Air Flow Fraction
  DesignDay,                              !- Heating Design Air Flow Method
  0,                                      !- Heating Design Air Flow Rate {m3/s}
  0.002032,                               !- Heating Maximum Air Flow per Zone Floor Area {m3/s-m2}
  0.1415762,                              !- Heating Maximum Air Flow {m3/s}
  0.3,                                    !- Heating Maximum Air Flow Fraction
  ,                                       !- Design Specification Zone Air Distribution Object Name
  No,                                     !- Account for Dedicated Outdoor Air System
  ,                                       !- Dedicated Outdoor Air System Control Strategy
  ,                                       !- Dedicated Outdoor Air Low Setpoint Temperature for Design {C}
  ,                                       !- Dedicated Outdoor Air High Setpoint Temperature for Design {C}
  Sensible Load Only No Latent Load,      !- Zone Load Sizing Method
  HumidityRatioDifference,                !- Zone Latent Cooling Design Supply Air Humidity Ratio Input Method
  ,                                       !- Zone Dehumidification Design Supply Air Humidity Ratio {kgWater/kgDryAir}
  0.005,                                  !- Zone Cooling Design Supply Air Humidity Ratio Difference {kgWater/kgDryAir}
  HumidityRatioDifference,                !- Zone Latent Heating Design Supply Air Humidity Ratio Input Method
  ,                                       !- Zone Humidification Design Supply Air Humidity Ratio {kgWater/kgDryAir}
  0.005,                                  !- Zone Humidification Design Supply Air Humidity Ratio Difference {kgWater/kgDryAir}
  ,                                       !- Zone Humidistat Dehumidification Set Point Schedule Name
  ,                                       !- Zone Humidistat Humidification Set Point Schedule Name
  Coincident;                             !- Type of Space Sum to Use

DesignSpecification:OutdoorAir:SpaceList,
  Room_142_d52ef896 DSOA Space List,      !- Name
  Room_142_d52ef896_Space,                !- Space Name 1
  Generic Office Ventilation;             !- Space Design Specification Outdoor Air Object Name 1

SimulationControl,
  Yes,                                    !- Do Zone Sizing Calculation
  Yes,                                    !- Do System Sizing Calculation
  Yes,                                    !- Do Plant Sizing Calculation
  No,                                     !- Run Simulation for Sizing Periods
  Yes,                                    !- Run Simulation for Weather File Run Periods
  ,                                       !- Do HVAC Sizing Simulation for Sizing Periods
  ;                                       !- Maximum Number of HVAC Sizing Simulation Passes

RunPeriod,
  Run Period 1,                           !- Name
  1,                                      !- Begin Month
  1,                                      !- Begin Day of Month
  2006,                                   !- Begin Year
  12,                                     !- End Month
  31,                                     !- End Day of Month
  2006,                                   !- End Year
  Sunday,                                 !- Day of Week for Start Day
  No,                                     !- Use Weather File Holidays and Special Days
  No,                                     !- Use Weather File Daylight Saving Period
  No,                                     !- Apply Weekend Holiday Rule
  Yes,                                    !- Use Weather File Rain Indicators
  Yes;                                    !- Use Weather File Snow Indicators

ShadowCalculation,
  PolygonClipping,                        !- Shading Calculation Method
  Periodic,                               !- Shading Calculation Update Frequency Method
  30,                                     !- Shading Calculation Update Frequency
  15000,                                  !- Maximum Figures in Shadow Overlap Calculations
  SutherlandHodgman,                      !- Polygon Clipping Algorithm
  512,                                    !- Pixel Counting Resolution
  SimpleSkyDiffuseModeling,               !- Sky Diffuse Modeling Algorithm
  No,                                     !- Output External Shading Calculation Results
  No,                                     !- Disable Self-Shading Within Shading Zone Groups
  No;                                     !- Disable Self-Shading From Shading Zone Groups to Other Zones

Sizing:Parameters,
  1.25,                                   !- Heating Sizing Factor
  1.15;                                   !- Cooling Sizing Factor

GlobalGeometryRules,
  UpperLeftCorner,                        !- Starting Vertex Position
  Counterclockwise,                       !- Vertex Entry Direction
  Relative,                               !- Coordinate System
  Relative,                               !- Daylighting Reference Point Coordinate System
  Relative;                               !- Rectangular Surface Coordinate System

Material,
  Generic 25mm Insulation,                !- Name
  MediumRough,                            !- Roughness
  0.025,                                  !- Thickness {m}
  0.03,                                   !- Conductivity {W/m-K}
  43,                                     !- Density {kg/m3}
  1210,                                   !- Specific Heat {J/kg-K}
  0.9,                                    !- Thermal Absorptance
  0.7,                                    !- Solar Absorptance
  0.7;                                    !- Visible Absorptance

Material,
  Generic 25mm Wood,                      !- Name
  MediumSmooth,                           !- Roughness
  0.0254,                                 !- Thickness {m}
  0.15,                                   !- Conductivity {W/m-K}
  608,                                    !- Density {kg/m3}
  1630,                                   !- Specific Heat {J/kg-K}
  0.9,                                    !- Thermal Absorptance
  0.5,                                    !- Solar Absorptance
  0.5;                                    !- Visible Absorptance

Material,
  Generic 50mm Insulation,                !- Name
  MediumRough,                            !- Roughness
  0.05,                                   !- Thickness {m}
  0.03,                                   !- Conductivity {W/m-K}
  43,                                     !- Density {kg/m3}
  1210,                                   !- Specific Heat {J/kg-K}
  0.9,                                    !- Thermal Absorptance
  0.7,                                    !- Solar Absorptance
  0.7;                                    !- Visible Absorptance

Material,
  Generic Acoustic Tile,                  !- Name
  MediumSmooth,                           !- Roughness
  0.02,                                   !- Thickness {m}
  0.06,                                   !- Conductivity {W/m-K}
  368,                                    !- Density {kg/m3}
  590,                                    !- Specific Heat {J/kg-K}
  0.9,                                    !- Thermal Absorptance
  0.2,                                    !- Solar Absorptance
  0.2;                                    !- Visible Absorptance

Material,
  Generic Brick,                          !- Name
  MediumRough,                            !- Roughness
  0.1,                                    !- Thickness {m}
  0.9,                                    !- Conductivity {W/m-K}
  1920,                                   !- Density {kg/m3}
  790,                                    !- Specific Heat {J/kg-K}
  0.9,                                    !- Thermal Absorptance
  0.65,                                   !- Solar Absorptance
  0.65;                                   !- Visible Absorptance

Material,
  Generic Ceiling Air Gap,                !- Name
  Smooth,                                 !- Roughness
  0.1,                                    !- Thickness {m}
  0.556,                                  !- Conductivity {W/m-K}
  1.28,                                   !- Density {kg/m3}
  1000,                                   !- Specific Heat {J/kg-K}
  0.9,                                    !- Thermal Absorptance
  0.7,                                    !- Solar Absorptance
  0.7;                                    !- Visible Absorptance

Material,
  Generic Gypsum Board,                   !- Name
  MediumSmooth,                           !- Roughness
  0.0127,                                 !- Thickness {m}
  0.16,                                   !- Conductivity {W/m-K}
  800,                                    !- Density {kg/m3}
  1090,                                   !- Specific Heat {J/kg-K}
  0.9,                                    !- Thermal Absorptance
  0.5,                                    !- Solar Absorptance
  0.5;                                    !- Visible Absorptance

Material,
  Generic HW Concrete,                    !- Name
  MediumRough,                            !- Roughness
  0.2,                                    !- Thickness {m}
  1.95,                                   !- Conductivity {W/m-K}
  2240,                                   !- Density {kg/m3}
  900,                                    !- Specific Heat {J/kg-K}
  0.9,                                    !- Thermal Absorptance
  0.8,                                    !- Solar Absorptance
  0.8;                                    !- Visible Absorptance

Material,
  Generic LW Concrete,                    !- Name
  MediumRough,                            !- Roughness
  0.1,                                    !- Thickness {m}
  0.53,                                   !- Conductivity {W/m-K}
  1280,                                   !- Density {kg/m3}
  840,                                    !- Specific Heat {J/kg-K}
  0.9,                                    !- Thermal Absorptance
  0.8,                                    !- Solar Absorptance
  0.8;                                    !- Visible Absorptance

Material,
  Generic Painted Metal,                  !- Name
  Smooth,                                 !- Roughness
  0.0015,                                 !- Thickness {m}
  45,                                     !- Conductivity {W/m-K}
  7690,                                   !- Density {kg/m3}
  410,                                    !- Specific Heat {J/kg-K}
  0.9,                                    !- Thermal Absorptance
  0.5,                                    !- Solar Absorptance
  0.5;                                    !- Visible Absorptance

Material,
  Generic Roof Membrane,                  !- Name
  MediumRough,                            !- Roughness
  0.01,                                   !- Thickness {m}
  0.16,                                   !- Conductivity {W/m-K}
  1120,                                   !- Density {kg/m3}
  1460,                                   !- Specific Heat {J/kg-K}
  0.9,                                    !- Thermal Absorptance
  0.65,                                   !- Solar Absorptance
  0.65;                                   !- Visible Absorptance

Material,
  Generic Wall Air Gap,                   !- Name
  Smooth,                                 !- Roughness
  0.1,                                    !- Thickness {m}
  0.667,                                  !- Conductivity {W/m-K}
  1.28,                                   !- Density {kg/m3}
  1000,                                   !- Specific Heat {J/kg-K}
  0.9,                                    !- Thermal Absorptance
  0.7,                                    !- Solar Absorptance
  0.7;                                    !- Visible Absorptance

Material,
  {43f762f5-4610-45d6-bab7-9ddeec96b796}, !- Name
  Smooth,                                 !- Roughness
  0.1,                                    !- Thickness {m}
  0.1,                                    !- Conductivity {W/m-K}
  0.1,                                    !- Density {kg/m3}
  1400,                                   !- Specific Heat {J/kg-K}
  0.9,                                    !- Thermal Absorptance
  0.65,                                   !- Solar Absorptance
  0.65;                                   !- Visible Absorptance

WindowMaterial:Gas,
  Generic Window Air Gap,                 !- Name
  Air,                                    !- Gas Type
  0.0127;                                 !- Thickness {m}

WindowMaterial:Glazing,
  Generic Clear Glass,                    !- Name
  SpectralAverage,                        !- Optical Data Type
  ,                                       !- Window Glass Spectral Data Set Name
  0.006,                                  !- Thickness {m}
  0.77,                                   !- Solar Transmittance at Normal Incidence
  0.07,                                   !- Front Side Solar Reflectance at Normal Incidence
  0.07,                                   !- Back Side Solar Reflectance at Normal Incidence
  0.88,                                   !- Visible Transmittance at Normal Incidence
  0.08,                                   !- Front Side Visible Reflectance at Normal Incidence
  0.08,                                   !- Back Side Visible Reflectance at Normal Incidence
  0,                                      !- Infrared Transmittance at Normal Incidence
  0.84,                                   !- Front Side Infrared Hemispherical Emissivity
  0.84,                                   !- Back Side Infrared Hemispherical Emissivity
  1,                                      !- Conductivity {W/m-K}
  1,                                      !- Dirt Correction Factor for Solar and Visible Transmittance
  No;                                     !- Solar Diffusing

WindowMaterial:Glazing,
  Generic Low-e Glass,                    !- Name
  SpectralAverage,                        !- Optical Data Type
  ,                                       !- Window Glass Spectral Data Set Name
  0.006,                                  !- Thickness {m}
  0.45,                                   !- Solar Transmittance at Normal Incidence
  0.36,                                   !- Front Side Solar Reflectance at Normal Incidence
  0.36,                                   !- Back Side Solar Reflectance at Normal Incidence
  0.71,                                   !- Visible Transmittance at Normal Incidence
  0.21,                                   !- Front Side Visible Reflectance at Normal Incidence
  0.21,                                   !- Back Side Visible Reflectance at Normal Incidence
  0,                                      !- Infrared Transmittance at Normal Incidence
  0.84,                                   !- Front Side Infrared Hemispherical Emissivity
  0.047,                                  !- Back Side Infrared Hemispherical Emissivity
  1,                                      !- Conductivity {W/m-K}
  1,                                      !- Dirt Correction Factor for Solar and Visible Transmittance
  No;                                     !- Solar Diffusing

Construction,
  Generic Double Pane,                    !- Name
  Generic Low-e Glass,                    !- Layer 1
  Generic Window Air Gap,                 !- Layer 2
  Generic Clear Glass;                    !- Layer 3

Construction,
  Generic Exposed Floor,                  !- Name
  Generic Painted Metal,                  !- Layer 1
  Generic Ceiling Air Gap,                !- Layer 2
  Generic 50mm Insulation,                !- Layer 3
  Generic LW Concrete;                    !- Layer 4

Construction,
  Generic Exterior Door,                  !- Name
  Generic Painted Metal,                  !- Layer 1
  Generic 25mm Insulation,                !- Layer 2
  Generic Painted Metal;                  !- Layer 3

Construction,
  Generic Exterior Wall,                  !- Name
  Generic Brick,                          !- Layer 1
  Generic LW Concrete,                    !- Layer 2
  Generic 50mm Insulation,                !- Layer 3
  Generic Wall Air Gap,                   !- Layer 4
  Generic Gypsum Board;                   !- Layer 5

Construction,
  Generic Ground Slab,                    !- Name
  Generic 50mm Insulation,                !- Layer 1
  Generic HW Concrete;                    !- Layer 2

Construction,
  Generic Interior Ceiling,               !- Name
  Generic LW Concrete,                    !- Layer 1
  Generic Ceiling Air Gap,                !- Layer 2
  Generic Acoustic Tile;                  !- Layer 3

Construction,
  Generic Interior Door,                  !- Name
  Generic 25mm Wood;                      !- Layer 1

Construction,
  Generic Interior Floor,                 !- Name
  Generic Acoustic Tile,                  !- Layer 1
  Generic Ceiling Air Gap,                !- Layer 2
  Generic LW Concrete;                    !- Layer 3

Construction,
  Generic Interior Wall,                  !- Name
  Generic Gypsum Board,                   !- Layer 1
  Generic Wall Air Gap,                   !- Layer 2
  Generic Gypsum Board;                   !- Layer 3

Construction,
  Generic Roof,                           !- Name
  Generic Roof Membrane,                  !- Layer 1
  Generic 50mm Insulation,                !- Layer 2
  Generic LW Concrete,                    !- Layer 3
  Generic Ceiling Air Gap,                !- Layer 4
  Generic Acoustic Tile;                  !- Layer 5

Construction,
  Generic Shade,                          !- Name
  {43f762f5-4610-45d6-bab7-9ddeec96b796}; !- Layer 1

Construction,
  Generic Single Pane,                    !- Name
  Generic Clear Glass;                    !- Layer 1

Construction,
  Generic Underground Roof,               !- Name
  Generic 50mm Insulation,                !- Layer 1
  Generic HW Concrete,                    !- Layer 2
  Generic Ceiling Air Gap,                !- Layer 3
  Generic Acoustic Tile;                  !- Layer 4

Construction,
  Generic Underground Wall,               !- Name
  Generic 50mm Insulation,                !- Layer 1
  Generic HW Concrete,                    !- Layer 2
  Generic Wall Air Gap,                   !- Layer 3
  Generic Gypsum Board;                   !- Layer 4

Construction:AirBoundary,
  Generic Air Boundary,                   !- Name
  None,                                   !- Air Exchange Method
  0,                                      !- Simple Mixing Air Changes per Hour {1/hr}
  ;                                       !- Simple Mixing Schedule Name

Schedule:Constant,
  Always On Discrete,                     !- Name
  OnOff,                                  !- Schedule Type Limits Name
  1;                                      !- Hourly Value

Schedule:Constant,
  Always Off Discrete,                    !- Name
  {44006d22-4601-40ab-815e-8ddc8852de5e}, !- Schedule Type Limits Name
  0;                                      !- Hourly Value

Schedule:Constant,
  Always On Continuous,                   !- Name
  Fractional,                             !- Schedule Type Limits Name
  1;                                      !- Hourly Value

ScheduleTypeLimits,
  OnOff,                                  !- Name
  0,                                      !- Lower Limit Value {BasedOnField A3}
  1,                                      !- Upper Limit Value {BasedOnField A3}
  Discrete,                               !- Numeric Type
  availability;                           !- Unit Type

ScheduleTypeLimits,
  {44006d22-4601-40ab-815e-8ddc8852de5e}, !- Name
  0,                                      !- Lower Limit Value {BasedOnField A3}
  1,                                      !- Upper Limit Value {BasedOnField A3}
  Discrete,                               !- Numeric Type
  availability;                           !- Unit Type

ScheduleTypeLimits,
  {b56214d8-f475-4e7f-846f-60950cec519a}, !- Name
  0,                                      !- Lower Limit Value {BasedOnField A3}
  1,                                      !- Upper Limit Value {BasedOnField A3}
  Continuous,                             !- Numeric Type
  dimensionless;                          !- Unit Type

Schedule:Day:Interval,
  Always On_Day Schedule,                 !- Name
  Fractional,                             !- Schedule Type Limits Name
  No,                                     !- Interpolate to Timestep
  24:00,                                  !- Time 1 {hh:mm}
  1;                                      !- Value Until Time 1

Schedule:Day:Interval,
  OfficeMedium BLDG_EQUIP_SCH_2013_Sat,   !- Name
  Fractional,                             !- Schedule Type Limits Name
  No,                                     !- Interpolate to Timestep
  06:00,                                  !- Time 1 {hh:mm}
  0.2307553806,                           !- Value Until Time 1
  08:00,                                  !- Time 2 {hh:mm}
  0.381234796,                            !- Value Until Time 2
  12:00,                                  !- Time 3 {hh:mm}
  0.476543495,                            !- Value Until Time 3
  17:00,                                  !- Time 4 {hh:mm}
  0.3335804465,                           !- Value Until Time 4
  19:00,                                  !- Time 5 {hh:mm}
  0.285926097,                            !- Value Until Time 5
  24:00,                                  !- Time 6 {hh:mm}
  0.2307553806;                           !- Value Until Time 6

Schedule:Day:Interval,
  OfficeMedium BLDG_EQUIP_SCH_2013_SmrDsn, !- Name
  Fractional,                             !- Schedule Type Limits Name
  No,                                     !- Interpolate to Timestep
  24:00,                                  !- Time 1 {hh:mm}
  1;                                      !- Value Until Time 1

Schedule:Day:Interval,
  OfficeMedium BLDG_EQUIP_SCH_2013_Wkdy,  !- Name
  Fractional,                             !- Schedule Type Limits Name
  No,                                     !- Interpolate to Timestep
  06:00,                                  !- Time 1 {hh:mm}
  0.3076738408,                           !- Value Until Time 1
  08:00,                                  !- Time 2 {hh:mm}
  0.381234796,                            !- Value Until Time 2
  12:00,                                  !- Time 3 {hh:mm}
  0.857778291,                            !- Value Until Time 3
  13:00,                                  !- Time 4 {hh:mm}
  0.762469592,                            !- Value Until Time 4
  17:00,                                  !- Time 5 {hh:mm}
  0.857778291,                            !- Value Until Time 5
  18:00,                                  !- Time 6 {hh:mm}
  0.476543495,                            !- Value Until Time 6
  24:00,                                  !- Time 7 {hh:mm}
  0.381234796;                            !- Value Until Time 7

Schedule:Day:Interval,
  OfficeMedium BLDG_EQUIP_SCH_2013_WntrDsn, !- Name
  Fractional,                             !- Schedule Type Limits Name
  No,                                     !- Interpolate to Timestep
  24:00,                                  !- Time 1 {hh:mm}
  0;                                      !- Value Until Time 1

Schedule:Day:Interval,
  OfficeMedium BLDG_LIGHT_SCH_2013_Sat,   !- Name
  Fractional,                             !- Schedule Type Limits Name
  No,                                     !- Interpolate to Timestep
  06:00,                                  !- Time 1 {hh:mm}
  0.05,                                   !- Value Until Time 1
  08:00,                                  !- Time 2 {hh:mm}
  0.08623256,                             !- Value Until Time 2
  12:00,                                  !- Time 3 {hh:mm}
  0.25869768,                             !- Value Until Time 3
  17:00,                                  !- Time 4 {hh:mm}
  0.12934884,                             !- Value Until Time 4
  19:00,                                  !- Time 5 {hh:mm}
  0.04311628,                             !- Value Until Time 5
  24:00,                                  !- Time 6 {hh:mm}
  0.05;                                   !- Value Until Time 6

Schedule:Day:Interval,
  OfficeMedium BLDG_LIGHT_SCH_2013_SmrDsn, !- Name
  Fractional,                             !- Schedule Type Limits Name
  No,                                     !- Interpolate to Timestep
  24:00,                                  !- Time 1 {hh:mm}
  1;                                      !- Value Until Time 1

Schedule:Day:Interval,
  OfficeMedium BLDG_LIGHT_SCH_2013_Wkdy,  !- Name
  Fractional,                             !- Schedule Type Limits Name
  No,                                     !- Interpolate to Timestep
  05:00,                                  !- Time 1 {hh:mm}
  0.05,                                   !- Value Until Time 1
  06:00,                                  !- Time 2 {hh:mm}
  0.1,                                    !- Value Until Time 2
  07:00,                                  !- Time 3 {hh:mm}
  0.08623256,                             !- Value Until Time 3
  08:00,                                  !- Time 4 {hh:mm}
  0.25869768,                             !- Value Until Time 4
  17:00,                                  !- Time 5 {hh:mm}
  0.77609304,                             !- Value Until Time 5
  18:00,                                  !- Time 6 {hh:mm}
  0.4311628,                              !- Value Until Time 6
  20:00,                                  !- Time 7 {hh:mm}
  0.25869768,                             !- Value Until Time 7
  22:00,                                  !- Time 8 {hh:mm}
  0.17246512,                             !- Value Until Time 8
  23:00,                                  !- Time 9 {hh:mm}
  0.08623256,                             !- Value Until Time 9
  24:00,                                  !- Time 10 {hh:mm}
  0.04311628;                             !- Value Until Time 10

Schedule:Day:Interval,
  OfficeMedium BLDG_LIGHT_SCH_2013_WntrDsn, !- Name
  Fractional,                             !- Schedule Type Limits Name
  No,                                     !- Interpolate to Timestep
  24:00,                                  !- Time 1 {hh:mm}
  0;                                      !- Value Until Time 1

Schedule:Day:Interval,
  OfficeMedium BLDG_OCC_SCH_Sat,          !- Name
  Fractional,                             !- Schedule Type Limits Name
  No,                                     !- Interpolate to Timestep
  06:00,                                  !- Time 1 {hh:mm}
  0,                                      !- Value Until Time 1
  08:00,                                  !- Time 2 {hh:mm}
  0.1,                                    !- Value Until Time 2
  12:00,                                  !- Time 3 {hh:mm}
  0.3,                                    !- Value Until Time 3
  17:00,                                  !- Time 4 {hh:mm}
  0.1,                                    !- Value Until Time 4
  19:00,                                  !- Time 5 {hh:mm}
  0.05,                                   !- Value Until Time 5
  24:00,                                  !- Time 6 {hh:mm}
  0;                                      !- Value Until Time 6

Schedule:Day:Interval,
  OfficeMedium BLDG_OCC_SCH_SmrDsn,       !- Name
  Fractional,                             !- Schedule Type Limits Name
  No,                                     !- Interpolate to Timestep
  06:00,                                  !- Time 1 {hh:mm}
  0,                                      !- Value Until Time 1
  22:00,                                  !- Time 2 {hh:mm}
  1,                                      !- Value Until Time 2
  24:00,                                  !- Time 3 {hh:mm}
  0.05;                                   !- Value Until Time 3

Schedule:Day:Interval,
  OfficeMedium BLDG_OCC_SCH_Wkdy,         !- Name
  Fractional,                             !- Schedule Type Limits Name
  No,                                     !- Interpolate to Timestep
  06:00,                                  !- Time 1 {hh:mm}
  0,                                      !- Value Until Time 1
  07:00,                                  !- Time 2 {hh:mm}
  0.1,                                    !- Value Until Time 2
  08:00,                                  !- Time 3 {hh:mm}
  0.2,                                    !- Value Until Time 3
  12:00,                                  !- Time 4 {hh:mm}
  0.95,                                   !- Value Until Time 4
  13:00,                                  !- Time 5 {hh:mm}
  0.5,                                    !- Value Until Time 5
  17:00,                                  !- Time 6 {hh:mm}
  0.95,                                   !- Value Until Time 6
  18:00,                                  !- Time 7 {hh:mm}
  0.3,                                    !- Value Until Time 7
  22:00,                                  !- Time 8 {hh:mm}
  0.1,                                    !- Value Until Time 8
  24:00,                                  !- Time 9 {hh:mm}
  0.05;                                   !- Value Until Time 9

Schedule:Day:Interval,
  OfficeMedium BLDG_OCC_SCH_WntrDsn,      !- Name
  Fractional,                             !- Schedule Type Limits Name
  No,                                     !- Interpolate to Timestep
  24:00,                                  !- Time 1 {hh:mm}
  0;                                      !- Value Until Time 1

Schedule:Day:Interval,
  OfficeMedium CLGSETP_SCH_YES_OPTIMUM_Default_WntrDsn, !- Name
  Temperature,                            !- Schedule Type Limits Name
  No,                                     !- Interpolate to Timestep
  24:00,                                  !- Time 1 {hh:mm}
  26.7;                                   !- Value Until Time 1

Schedule:Day:Interval,
  OfficeMedium CLGSETP_SCH_YES_OPTIMUM_Sat, !- Name
  Temperature,                            !- Schedule Type Limits Name
  No,                                     !- Interpolate to Timestep
  05:00,                                  !- Time 1 {hh:mm}
  26.7,                                   !- Value Until Time 1
  06:00,                                  !- Time 2 {hh:mm}
  25.7,                                   !- Value Until Time 2
  07:00,                                  !- Time 3 {hh:mm}
  25,                                     !- Value Until Time 3
  17:00,                                  !- Time 4 {hh:mm}
  24,                                     !- Value Until Time 4
  24:00,                                  !- Time 5 {hh:mm}
  26.7;                                   !- Value Until Time 5

Schedule:Day:Interval,
  OfficeMedium CLGSETP_SCH_YES_OPTIMUM_SmrDsn, !- Name
  Temperature,                            !- Schedule Type Limits Name
  No,                                     !- Interpolate to Timestep
  05:00,                                  !- Time 1 {hh:mm}
  26.7,                                   !- Value Until Time 1
  06:00,                                  !- Time 2 {hh:mm}
  25.7,                                   !- Value Until Time 2
  07:00,                                  !- Time 3 {hh:mm}
  25,                                     !- Value Until Time 3
  22:00,                                  !- Time 4 {hh:mm}
  24,                                     !- Value Until Time 4
  24:00,                                  !- Time 5 {hh:mm}
  26.7;                                   !- Value Until Time 5

Schedule:Day:Interval,
  OfficeMedium CLGSETP_SCH_YES_OPTIMUM_Wkdy, !- Name
  Temperature,                            !- Schedule Type Limits Name
  No,                                     !- Interpolate to Timestep
  05:00,                                  !- Time 1 {hh:mm}
  26.7,                                   !- Value Until Time 1
  06:00,                                  !- Time 2 {hh:mm}
  25.6,                                   !- Value Until Time 2
  07:00,                                  !- Time 3 {hh:mm}
  25,                                     !- Value Until Time 3
  22:00,                                  !- Time 4 {hh:mm}
  24,                                     !- Value Until Time 4
  24:00,                                  !- Time 5 {hh:mm}
  26.7;                                   !- Value Until Time 5

Schedule:Day:Interval,
  OfficeMedium HTGSETP_SCH_YES_OPTIMUM_Default_SmrDsn, !- Name
  Temperature,                            !- Schedule Type Limits Name
  No,                                     !- Interpolate to Timestep
  24:00,                                  !- Time 1 {hh:mm}
  15.6;                                   !- Value Until Time 1

Schedule:Day:Interval,
  OfficeMedium HTGSETP_SCH_YES_OPTIMUM_Sat, !- Name
  Temperature,                            !- Schedule Type Limits Name
  No,                                     !- Interpolate to Timestep
  05:00,                                  !- Time 1 {hh:mm}
  15.6,                                   !- Value Until Time 1
  06:00,                                  !- Time 2 {hh:mm}
  17.8,                                   !- Value Until Time 2
  07:00,                                  !- Time 3 {hh:mm}
  20,                                     !- Value Until Time 3
  17:00,                                  !- Time 4 {hh:mm}
  21,                                     !- Value Until Time 4
  24:00,                                  !- Time 5 {hh:mm}
  15.6;                                   !- Value Until Time 5

Schedule:Day:Interval,
  OfficeMedium HTGSETP_SCH_YES_OPTIMUM_Wkdy, !- Name
  Temperature,                            !- Schedule Type Limits Name
  No,                                     !- Interpolate to Timestep
  05:00,                                  !- Time 1 {hh:mm}
  15.6,                                   !- Value Until Time 1
  06:00,                                  !- Time 2 {hh:mm}
  17.8,                                   !- Value Until Time 2
  07:00,                                  !- Time 3 {hh:mm}
  20,                                     !- Value Until Time 3
  22:00,                                  !- Time 4 {hh:mm}
  21,                                     !- Value Until Time 4
  24:00,                                  !- Time 5 {hh:mm}
  15.6;                                   !- Value Until Time 5

Schedule:Day:Interval,
  OfficeMedium HTGSETP_SCH_YES_OPTIMUM_WntrDsn, !- Name
  Temperature,                            !- Schedule Type Limits Name
  No,                                     !- Interpolate to Timestep
  05:00,                                  !- Time 1 {hh:mm}
  15.6,                                   !- Value Until Time 1
  06:00,                                  !- Time 2 {hh:mm}
  17.6,                                   !- Value Until Time 2
  07:00,                                  !- Time 3 {hh:mm}
  19.6,                                   !- Value Until Time 3
  22:00,                                  !- Time 4 {hh:mm}
  21,                                     !- Value Until Time 4
  24:00,                                  !- Time 5 {hh:mm}
  15.6;                                   !- Value Until Time 5

Schedule:Day:Interval,
  OfficeMedium INFIL_SCH_PNNL_Default,    !- Name
  Fractional,                             !- Schedule Type Limits Name
  No,                                     !- Interpolate to Timestep
  24:00,                                  !- Time 1 {hh:mm}
  1;                                      !- Value Until Time 1

Schedule:Day:Interval,
  OfficeMedium INFIL_SCH_PNNL_Sat,        !- Name
  Fractional,                             !- Schedule Type Limits Name
  No,                                     !- Interpolate to Timestep
  06:00,                                  !- Time 1 {hh:mm}
  1,                                      !- Value Until Time 1
  18:00,                                  !- Time 2 {hh:mm}
  0.25,                                   !- Value Until Time 2
  24:00,                                  !- Time 3 {hh:mm}
  1;                                      !- Value Until Time 3

Schedule:Day:Interval,
  OfficeMedium INFIL_SCH_PNNL_Sat_WntrDsn, !- Name
  Fractional,                             !- Schedule Type Limits Name
  No,                                     !- Interpolate to Timestep
  06:00,                                  !- Time 1 {hh:mm}
  1,                                      !- Value Until Time 1
  18:00,                                  !- Time 2 {hh:mm}
  0.25,                                   !- Value Until Time 2
  24:00,                                  !- Time 3 {hh:mm}
  1;                                      !- Value Until Time 3

Schedule:Day:Interval,
  OfficeMedium INFIL_SCH_PNNL_Wkdy,       !- Name
  Fractional,                             !- Schedule Type Limits Name
  No,                                     !- Interpolate to Timestep
  06:00,                                  !- Time 1 {hh:mm}
  1,                                      !- Value Until Time 1
  22:00,                                  !- Time 2 {hh:mm}
  0.25,                                   !- Value Until Time 2
  24:00,                                  !- Time 3 {hh:mm}
  1;                                      !- Value Until Time 3

Schedule:Day:Interval,
  OfficeMedium INFIL_SCH_PNNL_Wkdy_SmrDsn, !- Name
  Fractional,                             !- Schedule Type Limits Name
  No,                                     !- Interpolate to Timestep
  06:00,                                  !- Time 1 {hh:mm}
  1,                                      !- Value Until Time 1
  22:00,                                  !- Time 2 {hh:mm}
  0.25,                                   !- Value Until Time 2
  24:00,                                  !- Time 3 {hh:mm}
  1;                                      !- Value Until Time 3

Schedule:Day:Interval,
  {150eec7b-c791-4cf4-b089-6084cfa114b4}, !- Name
  Fractional,                             !- Schedule Type Limits Name
  No,                                     !- Interpolate to Timestep
  24:00,                                  !- Time 1 {hh:mm}
  1;                                      !- Value Until Time 1

Schedule:Day:Interval,
  {41ac8949-d4ec-4efa-9133-abac6b12a6a1}, !- Name
  Fractional,                             !- Schedule Type Limits Name
  No,                                     !- Interpolate to Timestep
  06:00,                                  !- Time 1 {hh:mm}
  1,                                      !- Value Until Time 1
  18:00,                                  !- Time 2 {hh:mm}
  0.25,                                   !- Value Until Time 2
  24:00,                                  !- Time 3 {hh:mm}
  1;                                      !- Value Until Time 3

Schedule:Day:Interval,
  {85cd7459-dd63-454a-b9a8-815dee0a1aa7}, !- Name
  Fractional,                             !- Schedule Type Limits Name
  No,                                     !- Interpolate to Timestep
  06:00,                                  !- Time 1 {hh:mm}
  1,                                      !- Value Until Time 1
  18:00,                                  !- Time 2 {hh:mm}
  0.25,                                   !- Value Until Time 2
  24:00,                                  !- Time 3 {hh:mm}
  1;                                      !- Value Until Time 3

Schedule:Day:Interval,
  {bdb1caa6-9e30-44c9-9124-a3f0e2ca29d9}, !- Name
  Fractional,                             !- Schedule Type Limits Name
  No,                                     !- Interpolate to Timestep
  06:00,                                  !- Time 1 {hh:mm}
  1,                                      !- Value Until Time 1
  22:00,                                  !- Time 2 {hh:mm}
  0.25,                                   !- Value Until Time 2
  24:00,                                  !- Time 3 {hh:mm}
  1;                                      !- Value Until Time 3

Schedule:Day:Interval,
  {f840f318-4fcc-40ae-823a-ec6fd9e5aaad}, !- Name
  Fractional,                             !- Schedule Type Limits Name
  No,                                     !- Interpolate to Timestep
  06:00,                                  !- Time 1 {hh:mm}
  1,                                      !- Value Until Time 1
  22:00,                                  !- Time 2 {hh:mm}
  0.25,                                   !- Value Until Time 2
  24:00,                                  !- Time 3 {hh:mm}
  1;                                      !- Value Until Time 3

Schedule:Week:Daily,
  Always On Week Rule - Jan1-Dec31,       !- Name
  Always On_Day Schedule,                 !- Sunday Schedule:Day Name
  Always On_Day Schedule,                 !- Monday Schedule:Day Name
  Always On_Day Schedule,                 !- Tuesday Schedule:Day Name
  Always On_Day Schedule,                 !- Wednesday Schedule:Day Name
  Always On_Day Schedule,                 !- Thursday Schedule:Day Name
  Always On_Day Schedule,                 !- Friday Schedule:Day Name
  Always On_Day Schedule,                 !- Saturday Schedule:Day Name
  Always On_Day Schedule,                 !- Holiday Schedule:Day Name
  Always On_Day Schedule,                 !- SummerDesignDay Schedule:Day Name
  Always On_Day Schedule,                 !- WinterDesignDay Schedule:Day Name
  Always On_Day Schedule,                 !- CustomDay1 Schedule:Day Name
  Always On_Day Schedule;                 !- CustomDay2 Schedule:Day Name

Schedule:Year,
  Always On,                              !- Name
  Fractional,                             !- Schedule Type Limits Name
  Always On Week Rule - Jan1-Dec31,       !- Schedule:Week Name 1
  1,                                      !- Start Month 1
  1,                                      !- Start Day 1
  12,                                     !- End Month 1
  31;                                     !- End Day 1

Schedule:Week:Daily,
  Generic Office Infiltration Week Rule - Jan1-Dec31, !- Name
  OfficeMedium INFIL_SCH_PNNL_Default,    !- Sunday Schedule:Day Name
  {f840f318-4fcc-40ae-823a-ec6fd9e5aaad}, !- Monday Schedule:Day Name
  {f840f318-4fcc-40ae-823a-ec6fd9e5aaad}, !- Tuesday Schedule:Day Name
  {f840f318-4fcc-40ae-823a-ec6fd9e5aaad}, !- Wednesday Schedule:Day Name
  {f840f318-4fcc-40ae-823a-ec6fd9e5aaad}, !- Thursday Schedule:Day Name
  {f840f318-4fcc-40ae-823a-ec6fd9e5aaad}, !- Friday Schedule:Day Name
  {41ac8949-d4ec-4efa-9133-abac6b12a6a1}, !- Saturday Schedule:Day Name
  {150eec7b-c791-4cf4-b089-6084cfa114b4}, !- Holiday Schedule:Day Name
  {bdb1caa6-9e30-44c9-9124-a3f0e2ca29d9}, !- SummerDesignDay Schedule:Day Name
  {85cd7459-dd63-454a-b9a8-815dee0a1aa7}, !- WinterDesignDay Schedule:Day Name
  OfficeMedium INFIL_SCH_PNNL_Default,    !- CustomDay1 Schedule:Day Name
  OfficeMedium INFIL_SCH_PNNL_Default;    !- CustomDay2 Schedule:Day Name

Schedule:Year,
  Generic Office Infiltration,            !- Name
  Fractional,                             !- Schedule Type Limits Name
  Generic Office Infiltration Week Rule - Jan1-Dec31, !- Schedule:Week Name 1
  1,                                      !- Start Month 1
  1,                                      !- Start Day 1
  12,                                     !- End Month 1
  31;                                     !- End Day 1

OutdoorAir:Node,
  Model Outdoor Air Node;                 !- Name

OutputControl:ReportingTolerances,
  1.11,                                   !- Tolerance for Time Heating Setpoint Not Met {deltaC}
  1.11;                                   !- Tolerance for Time Cooling Setpoint Not Met {deltaC}

Output:Table:SummaryReports,
  AllSummary;                             !- Report Name 1

Site:Location,
  Site 1,                                 !- Name
  0,                                      !- Latitude {deg}
  0,                                      !- Longitude {deg}
  0,                                      !- Time Zone {hr}
  0;                                      !- Elevation {m}

Site:WaterMainsTemperature,
  CorrelationFromWeatherFile;             !- Calculation Method

SizingPeriod:DesignDay,
  Tokyo Ann Clg .4% Condns DB=>MWB,       !- Name
  8,                                      !- Month
  21,                                     !- Day of Month
  SummerDesignDay,                        !- Day Type
  33.7,                                   !- Maximum Dry-Bulb Temperature {C}
  7.2,                                    !- Daily Dry-Bulb Temperature Range {deltaC}
  DefaultMultipliers,                     !- Dry-Bulb Temperature Range Modifier Type
  ,                                       !- Dry-Bulb Temperature Range Modifier Day Schedule Name
  Wetbulb,                                !- Humidity Condition Type
  25.6,                                   !- Wetbulb or DewPoint at Maximum Dry-Bulb {C}
  ,                                       !- Humidity Condition Day Schedule Name
  ,                                       !- Humidity Ratio at Maximum Dry-Bulb {kgWater/kgDryAir}
  ,                                       !- Enthalpy at Maximum Dry-Bulb {J/kg}
  ,                                       !- Daily Wet-Bulb Temperature Range {deltaC}
  101265,                                 !- Barometric Pressure {Pa}
  4,                                      !- Wind Speed {m/s}
  150,                                    !- Wind Direction {deg}
  No,                                     !- Rain Indicator
  No,                                     !- Snow Indicator
  No,                                     !- Daylight Saving Time Indicator
  ASHRAETau2017,                          !- Solar Model Indicator
  ,                                       !- Beam Solar Day Schedule Name
  ,                                       !- Diffuse Solar Day Schedule Name
  ,                                       !- ASHRAE Clear Sky Optical Depth for Beam Irradiance (taub) {dimensionless}
  ,                                       !- ASHRAE Clear Sky Optical Depth for Diffuse Irradiance (taud) {dimensionless}
  ,                                       !- Sky Clearness
  ,                                       !- Maximum Number Warmup Days
  FullResetAtBeginEnvironment;            !- Begin Environment Reset Mode

SizingPeriod:DesignDay,
  Tokyo Ann Clg .4% Condns DP=>MDB,       !- Name
  8,                                      !- Month
  21,                                     !- Day of Month
  SummerDesignDay,                        !- Day Type
  29,                                     !- Maximum Dry-Bulb Temperature {C}
  6.1,                                    !- Daily Dry-Bulb Temperature Range {deltaC}
  DefaultMultipliers,                     !- Dry-Bulb Temperature Range Modifier Type
  ,                                       !- Dry-Bulb Temperature Range Modifier Day Schedule Name
  Dewpoint,                               !- Humidity Condition Type
  25.4,                                   !- Wetbulb or DewPoint at Maximum Dry-Bulb {C}
  ,                                       !- Humidity Condition Day Schedule Name
  ,                                       !- Humidity Ratio at Maximum Dry-Bulb {kgWater/kgDryAir}
  ,                                       !- Enthalpy at Maximum Dry-Bulb {J/kg}
  ,                                       !- Daily Wet-Bulb Temperature Range {deltaC}
  101265,                                 !- Barometric Pressure {Pa}
  4,                                      !- Wind Speed {m/s}
  150,                                    !- Wind Direction {deg}
  No,                                     !- Rain Indicator
  No,                                     !- Snow Indicator
  No,                                     !- Daylight Saving Time Indicator
  ASHRAETau2017,                          !- Solar Model Indicator
  ,                                       !- Beam Solar Day Schedule Name
  ,                                       !- Diffuse Solar Day Schedule Name
  ,                                       !- ASHRAE Clear Sky Optical Depth for Beam Irradiance (taub) {dimensionless}
  ,                                       !- ASHRAE Clear Sky Optical Depth for Diffuse Irradiance (taud) {dimensionless}
  ,                                       !- Sky Clearness
  ,                                       !- Maximum Number Warmup Days
  FullResetAtBeginEnvironment;            !- Begin Environment Reset Mode

SizingPeriod:DesignDay,
  Tokyo Ann Clg .4% Condns Enth=>MDB,     !- Name
  8,                                      !- Month
  21,                                     !- Day of Month
  SummerDesignDay,                        !- Day Type
  31.3,                                   !- Maximum Dry-Bulb Temperature {C}
  6.1,                                    !- Daily Dry-Bulb Temperature Range {deltaC}
  DefaultMultipliers,                     !- Dry-Bulb Temperature Range Modifier Type
  ,                                       !- Dry-Bulb Temperature Range Modifier Day Schedule Name
  Enthalpy,                               !- Humidity Condition Type
  ,                                       !- Wetbulb or DewPoint at Maximum Dry-Bulb {C}
  ,                                       !- Humidity Condition Day Schedule Name
  ,                                       !- Humidity Ratio at Maximum Dry-Bulb {kgWater/kgDryAir}
  83500,                                  !- Enthalpy at Maximum Dry-Bulb {J/kg}
  ,                                       !- Daily Wet-Bulb Temperature Range {deltaC}
  101265,                                 !- Barometric Pressure {Pa}
  4,                                      !- Wind Speed {m/s}
  150,                                    !- Wind Direction {deg}
  No,                                     !- Rain Indicator
  No,                                     !- Snow Indicator
  No,                                     !- Daylight Saving Time Indicator
  ASHRAETau2017,                          !- Solar Model Indicator
  ,                                       !- Beam Solar Day Schedule Name
  ,                                       !- Diffuse Solar Day Schedule Name
  ,                                       !- ASHRAE Clear Sky Optical Depth for Beam Irradiance (taub) {dimensionless}
  ,                                       !- ASHRAE Clear Sky Optical Depth for Diffuse Irradiance (taud) {dimensionless}
  ,                                       !- Sky Clearness
  ,                                       !- Maximum Number Warmup Days
  FullResetAtBeginEnvironment;            !- Begin Environment Reset Mode

SizingPeriod:DesignDay,
  Tokyo Ann Clg .4% Condns WB=>MDB,       !- Name
  8,                                      !- Month
  21,                                     !- Day of Month
  SummerDesignDay,                        !- Day Type
  31.3,                                   !- Maximum Dry-Bulb Temperature {C}
  6.8,                                    !- Daily Dry-Bulb Temperature Range {deltaC}
  DefaultMultipliers,                     !- Dry-Bulb Temperature Range Modifier Type
  ,                                       !- Dry-Bulb Temperature Range Modifier Day Schedule Name
  Wetbulb,                                !- Humidity Condition Type
  26.6,                                   !- Wetbulb or DewPoint at Maximum Dry-Bulb {C}
  ,                                       !- Humidity Condition Day Schedule Name
  ,                                       !- Humidity Ratio at Maximum Dry-Bulb {kgWater/kgDryAir}
  ,                                       !- Enthalpy at Maximum Dry-Bulb {J/kg}
  ,                                       !- Daily Wet-Bulb Temperature Range {deltaC}
  101265,                                 !- Barometric Pressure {Pa}
  4,                                      !- Wind Speed {m/s}
  150,                                    !- Wind Direction {deg}
  No,                                     !- Rain Indicator
  No,                                     !- Snow Indicator
  No,                                     !- Daylight Saving Time Indicator
  ASHRAETau2017,                          !- Solar Model Indicator
  ,                                       !- Beam Solar Day Schedule Name
  ,                                       !- Diffuse Solar Day Schedule Name
  ,                                       !- ASHRAE Clear Sky Optical Depth for Beam Irradiance (taub) {dimensionless}
  ,                                       !- ASHRAE Clear Sky Optical Depth for Diffuse Irradiance (taud) {dimensionless}
  ,                                       !- Sky Clearness
  ,                                       !- Maximum Number Warmup Days
  FullResetAtBeginEnvironment;            !- Begin Environment Reset Mode

SizingPeriod:DesignDay,
  Tokyo Ann Htg 99.6% Condns DB,          !- Name
  1,                                      !- Month
  21,                                     !- Day of Month
  WinterDesignDay,                        !- Day Type
  0.7,                                    !- Maximum Dry-Bulb Temperature {C}
  0,                                      !- Daily Dry-Bulb Temperature Range {deltaC}
  DefaultMultipliers,                     !- Dry-Bulb Temperature Range Modifier Type
  ,                                       !- Dry-Bulb Temperature Range Modifier Day Schedule Name
  Wetbulb,                                !- Humidity Condition Type
  0.7,                                    !- Wetbulb or DewPoint at Maximum Dry-Bulb {C}
  ,                                       !- Humidity Condition Day Schedule Name
  ,                                       !- Humidity Ratio at Maximum Dry-Bulb {kgWater/kgDryAir}
  ,                                       !- Enthalpy at Maximum Dry-Bulb {J/kg}
  ,                                       !- Daily Wet-Bulb Temperature Range {deltaC}
  101265,                                 !- Barometric Pressure {Pa}
  3.1,                                    !- Wind Speed {m/s}
  340,                                    !- Wind Direction {deg}
  No,                                     !- Rain Indicator
  No,                                     !- Snow Indicator
  No,                                     !- Daylight Saving Time Indicator
  ASHRAEClearSky,                         !- Solar Model Indicator
  ,                                       !- Beam Solar Day Schedule Name
  ,                                       !- Diffuse Solar Day Schedule Name
  ,                                       !- ASHRAE Clear Sky Optical Depth for Beam Irradiance (taub) {dimensionless}
  ,                                       !- ASHRAE Clear Sky Optical Depth for Diffuse Irradiance (taud) {dimensionless}
  0,                                      !- Sky Clearness
  ,                                       !- Maximum Number Warmup Days
  FullResetAtBeginEnvironment;            !- Begin Environment Reset Mode

SizingPeriod:DesignDay,
  Tokyo Ann Htg Wind 99.6% Condns WS=>MCDB, !- Name
  1,                                      !- Month
  21,                                     !- Day of Month
  WinterDesignDay,                        !- Day Type
  6.8,                                    !- Maximum Dry-Bulb Temperature {C}
  0,                                      !- Daily Dry-Bulb Temperature Range {deltaC}
  DefaultMultipliers,                     !- Dry-Bulb Temperature Range Modifier Type
  ,                                       !- Dry-Bulb Temperature Range Modifier Day Schedule Name
  Wetbulb,                                !- Humidity Condition Type
  6.8,                                    !- Wetbulb or DewPoint at Maximum Dry-Bulb {C}
  ,                                       !- Humidity Condition Day Schedule Name
  ,                                       !- Humidity Ratio at Maximum Dry-Bulb {kgWater/kgDryAir}
  ,                                       !- Enthalpy at Maximum Dry-Bulb {J/kg}
  ,                                       !- Daily Wet-Bulb Temperature Range {deltaC}
  101265,                                 !- Barometric Pressure {Pa}
  8.9,                                    !- Wind Speed {m/s}
  340,                                    !- Wind Direction {deg}
  No,                                     !- Rain Indicator
  No,                                     !- Snow Indicator
  No,                                     !- Daylight Saving Time Indicator
  ASHRAEClearSky,                         !- Solar Model Indicator
  ,                                       !- Beam Solar Day Schedule Name
  ,                                       !- Diffuse Solar Day Schedule Name
  ,                                       !- ASHRAE Clear Sky Optical Depth for Beam Irradiance (taub) {dimensionless}
  ,                                       !- ASHRAE Clear Sky Optical Depth for Diffuse Irradiance (taud) {dimensionless}
  0,                                      !- Sky Clearness
  ,                                       !- Maximum Number Warmup Days
  FullResetAtBeginEnvironment;            !- Begin Environment Reset Mode

SizingPeriod:DesignDay,
  Tokyo Ann Hum_n 99.6% Condns DP=>MCDB,  !- Name
  1,                                      !- Month
  21,                                     !- Day of Month
  WinterDesignDay,                        !- Day Type
  5.4,                                    !- Maximum Dry-Bulb Temperature {C}
  0,                                      !- Daily Dry-Bulb Temperature Range {deltaC}
  DefaultMultipliers,                     !- Dry-Bulb Temperature Range Modifier Type
  ,                                       !- Dry-Bulb Temperature Range Modifier Day Schedule Name
  Dewpoint,                               !- Humidity Condition Type
  -14.9,                                  !- Wetbulb or DewPoint at Maximum Dry-Bulb {C}
  ,                                       !- Humidity Condition Day Schedule Name
  ,                                       !- Humidity Ratio at Maximum Dry-Bulb {kgWater/kgDryAir}
  ,                                       !- Enthalpy at Maximum Dry-Bulb {J/kg}
  ,                                       !- Daily Wet-Bulb Temperature Range {deltaC}
  101265,                                 !- Barometric Pressure {Pa}
  3.1,                                    !- Wind Speed {m/s}
  340,                                    !- Wind Direction {deg}
  No,                                     !- Rain Indicator
  No,                                     !- Snow Indicator
  No,                                     !- Daylight Saving Time Indicator
  ASHRAEClearSky,                         !- Solar Model Indicator
  ,                                       !- Beam Solar Day Schedule Name
  ,                                       !- Diffuse Solar Day Schedule Name
  ,                                       !- ASHRAE Clear Sky Optical Depth for Beam Irradiance (taub) {dimensionless}
  ,                                       !- ASHRAE Clear Sky Optical Depth for Diffuse Irradiance (taud) {dimensionless}
  0,                                      !- Sky Clearness
  ,                                       !- Maximum Number Warmup Days
  FullResetAtBeginEnvironment;            !- Begin Environment Reset Mode

SizingPeriod:DesignDay,
  Tokyo April .4% Condns DB=>MCWB,        !- Name
  4,                                      !- Month
  21,                                     !- Day of Month
  SummerDesignDay,                        !- Day Type
  25.3,                                   !- Maximum Dry-Bulb Temperature {C}
  7.5,                                    !- Daily Dry-Bulb Temperature Range {deltaC}
  DefaultMultipliers,                     !- Dry-Bulb Temperature Range Modifier Type
  ,                                       !- Dry-Bulb Temperature Range Modifier Day Schedule Name
  Wetbulb,                                !- Humidity Condition Type
  16.4,                                   !- Wetbulb or DewPoint at Maximum Dry-Bulb {C}
  ,                                       !- Humidity Condition Day Schedule Name
  ,                                       !- Humidity Ratio at Maximum Dry-Bulb {kgWater/kgDryAir}
  ,                                       !- Enthalpy at Maximum Dry-Bulb {J/kg}
  ,                                       !- Daily Wet-Bulb Temperature Range {deltaC}
  101265,                                 !- Barometric Pressure {Pa}
  3.5,                                    !- Wind Speed {m/s}
  150,                                    !- Wind Direction {deg}
  No,                                     !- Rain Indicator
  No,                                     !- Snow Indicator
  No,                                     !- Daylight Saving Time Indicator
  ASHRAETau2017,                          !- Solar Model Indicator
  ,                                       !- Beam Solar Day Schedule Name
  ,                                       !- Diffuse Solar Day Schedule Name
  ,                                       !- ASHRAE Clear Sky Optical Depth for Beam Irradiance (taub) {dimensionless}
  ,                                       !- ASHRAE Clear Sky Optical Depth for Diffuse Irradiance (taud) {dimensionless}
  ,                                       !- Sky Clearness
  ,                                       !- Maximum Number Warmup Days
  FullResetAtBeginEnvironment;            !- Begin Environment Reset Mode

SizingPeriod:DesignDay,
  Tokyo April .4% Condns WB=>MCDB,        !- Name
  4,                                      !- Month
  21,                                     !- Day of Month
  SummerDesignDay,                        !- Day Type
  21.7,                                   !- Maximum Dry-Bulb Temperature {C}
  7.5,                                    !- Daily Dry-Bulb Temperature Range {deltaC}
  DefaultMultipliers,                     !- Dry-Bulb Temperature Range Modifier Type
  ,                                       !- Dry-Bulb Temperature Range Modifier Day Schedule Name
  Wetbulb,                                !- Humidity Condition Type
  20.1,                                   !- Wetbulb or DewPoint at Maximum Dry-Bulb {C}
  ,                                       !- Humidity Condition Day Schedule Name
  ,                                       !- Humidity Ratio at Maximum Dry-Bulb {kgWater/kgDryAir}
  ,                                       !- Enthalpy at Maximum Dry-Bulb {J/kg}
  ,                                       !- Daily Wet-Bulb Temperature Range {deltaC}
  101265,                                 !- Barometric Pressure {Pa}
  3.5,                                    !- Wind Speed {m/s}
  150,                                    !- Wind Direction {deg}
  No,                                     !- Rain Indicator
  No,                                     !- Snow Indicator
  No,                                     !- Daylight Saving Time Indicator
  ASHRAETau2017,                          !- Solar Model Indicator
  ,                                       !- Beam Solar Day Schedule Name
  ,                                       !- Diffuse Solar Day Schedule Name
  ,                                       !- ASHRAE Clear Sky Optical Depth for Beam Irradiance (taub) {dimensionless}
  ,                                       !- ASHRAE Clear Sky Optical Depth for Diffuse Irradiance (taud) {dimensionless}
  ,                                       !- Sky Clearness
  ,                                       !- Maximum Number Warmup Days
  FullResetAtBeginEnvironment;            !- Begin Environment Reset Mode

SizingPeriod:DesignDay,
  Tokyo August .4% Condns DB=>MCWB,       !- Name
  8,                                      !- Month
  21,                                     !- Day of Month
  SummerDesignDay,                        !- Day Type
  35.5,                                   !- Maximum Dry-Bulb Temperature {C}
  6.1,                                    !- Daily Dry-Bulb Temperature Range {deltaC}
  DefaultMultipliers,                     !- Dry-Bulb Temperature Range Modifier Type
  ,                                       !- Dry-Bulb Temperature Range Modifier Day Schedule Name
  Wetbulb,                                !- Humidity Condition Type
  25.7,                                   !- Wetbulb or DewPoint at Maximum Dry-Bulb {C}
  ,                                       !- Humidity Condition Day Schedule Name
  ,                                       !- Humidity Ratio at Maximum Dry-Bulb {kgWater/kgDryAir}
  ,                                       !- Enthalpy at Maximum Dry-Bulb {J/kg}
  ,                                       !- Daily Wet-Bulb Temperature Range {deltaC}
  101265,                                 !- Barometric Pressure {Pa}
  3,                                      !- Wind Speed {m/s}
  150,                                    !- Wind Direction {deg}
  No,                                     !- Rain Indicator
  No,                                     !- Snow Indicator
  No,                                     !- Daylight Saving Time Indicator
  ASHRAETau2017,                          !- Solar Model Indicator
  ,                                       !- Beam Solar Day Schedule Name
  ,                                       !- Diffuse Solar Day Schedule Name
  ,                                       !- ASHRAE Clear Sky Optical Depth for Beam Irradiance (taub) {dimensionless}
  ,                                       !- ASHRAE Clear Sky Optical Depth for Diffuse Irradiance (taud) {dimensionless}
  ,                                       !- Sky Clearness
  ,                                       !- Maximum Number Warmup Days
  FullResetAtBeginEnvironment;            !- Begin Environment Reset Mode

SizingPeriod:DesignDay,
  Tokyo August .4% Condns WB=>MCDB,       !- Name
  8,                                      !- Month
  21,                                     !- Day of Month
  SummerDesignDay,                        !- Day Type
  32.9,                                   !- Maximum Dry-Bulb Temperature {C}
  6.1,                                    !- Daily Dry-Bulb Temperature Range {deltaC}
  DefaultMultipliers,                     !- Dry-Bulb Temperature Range Modifier Type
  ,                                       !- Dry-Bulb Temperature Range Modifier Day Schedule Name
  Wetbulb,                                !- Humidity Condition Type
  27.8,                                   !- Wetbulb or DewPoint at Maximum Dry-Bulb {C}
  ,                                       !- Humidity Condition Day Schedule Name
  ,                                       !- Humidity Ratio at Maximum Dry-Bulb {kgWater/kgDryAir}
  ,                                       !- Enthalpy at Maximum Dry-Bulb {J/kg}
  ,                                       !- Daily Wet-Bulb Temperature Range {deltaC}
  101265,                                 !- Barometric Pressure {Pa}
  3,                                      !- Wind Speed {m/s}
  150,                                    !- Wind Direction {deg}
  No,                                     !- Rain Indicator
  No,                                     !- Snow Indicator
  No,                                     !- Daylight Saving Time Indicator
  ASHRAETau2017,                          !- Solar Model Indicator
  ,                                       !- Beam Solar Day Schedule Name
  ,                                       !- Diffuse Solar Day Schedule Name
  ,                                       !- ASHRAE Clear Sky Optical Depth for Beam Irradiance (taub) {dimensionless}
  ,                                       !- ASHRAE Clear Sky Optical Depth for Diffuse Irradiance (taud) {dimensionless}
  ,                                       !- Sky Clearness
  ,                                       !- Maximum Number Warmup Days
  FullResetAtBeginEnvironment;            !- Begin Environment Reset Mode

SizingPeriod:DesignDay,
  Tokyo December .4% Condns DB=>MCWB,     !- Name
  12,                                     !- Month
  21,                                     !- Day of Month
  SummerDesignDay,                        !- Day Type
  18.7,                                   !- Maximum Dry-Bulb Temperature {C}
  6.6,                                    !- Daily Dry-Bulb Temperature Range {deltaC}
  DefaultMultipliers,                     !- Dry-Bulb Temperature Range Modifier Type
  ,                                       !- Dry-Bulb Temperature Range Modifier Day Schedule Name
  Wetbulb,                                !- Humidity Condition Type
  13.3,                                   !- Wetbulb or DewPoint at Maximum Dry-Bulb {C}
  ,                                       !- Humidity Condition Day Schedule Name
  ,                                       !- Humidity Ratio at Maximum Dry-Bulb {kgWater/kgDryAir}
  ,                                       !- Enthalpy at Maximum Dry-Bulb {J/kg}
  ,                                       !- Daily Wet-Bulb Temperature Range {deltaC}
  101265,                                 !- Barometric Pressure {Pa}
  2.9,                                    !- Wind Speed {m/s}
  150,                                    !- Wind Direction {deg}
  No,                                     !- Rain Indicator
  No,                                     !- Snow Indicator
  No,                                     !- Daylight Saving Time Indicator
  ASHRAETau2017,                          !- Solar Model Indicator
  ,                                       !- Beam Solar Day Schedule Name
  ,                                       !- Diffuse Solar Day Schedule Name
  ,                                       !- ASHRAE Clear Sky Optical Depth for Beam Irradiance (taub) {dimensionless}
  ,                                       !- ASHRAE Clear Sky Optical Depth for Diffuse Irradiance (taud) {dimensionless}
  ,                                       !- Sky Clearness
  ,                                       !- Maximum Number Warmup Days
  FullResetAtBeginEnvironment;            !- Begin Environment Reset Mode

SizingPeriod:DesignDay,
  Tokyo December .4% Condns WB=>MCDB,     !- Name
  12,                                     !- Month
  21,                                     !- Day of Month
  SummerDesignDay,                        !- Day Type
  17.4,                                   !- Maximum Dry-Bulb Temperature {C}
  6.6,                                    !- Daily Dry-Bulb Temperature Range {deltaC}
  DefaultMultipliers,                     !- Dry-Bulb Temperature Range Modifier Type
  ,                                       !- Dry-Bulb Temperature Range Modifier Day Schedule Name
  Wetbulb,                                !- Humidity Condition Type
  14.5,                                   !- Wetbulb or DewPoint at Maximum Dry-Bulb {C}
  ,                                       !- Humidity Condition Day Schedule Name
  ,                                       !- Humidity Ratio at Maximum Dry-Bulb {kgWater/kgDryAir}
  ,                                       !- Enthalpy at Maximum Dry-Bulb {J/kg}
  ,                                       !- Daily Wet-Bulb Temperature Range {deltaC}
  101265,                                 !- Barometric Pressure {Pa}
  2.9,                                    !- Wind Speed {m/s}
  150,                                    !- Wind Direction {deg}
  No,                                     !- Rain Indicator
  No,                                     !- Snow Indicator
  No,                                     !- Daylight Saving Time Indicator
  ASHRAETau2017,                          !- Solar Model Indicator
  ,                                       !- Beam Solar Day Schedule Name
  ,                                       !- Diffuse Solar Day Schedule Name
  ,                                       !- ASHRAE Clear Sky Optical Depth for Beam Irradiance (taub) {dimensionless}
  ,                                       !- ASHRAE Clear Sky Optical Depth for Diffuse Irradiance (taud) {dimensionless}
  ,                                       !- Sky Clearness
  ,                                       !- Maximum Number Warmup Days
  FullResetAtBeginEnvironment;            !- Begin Environment Reset Mode

SizingPeriod:DesignDay,
  Tokyo February .4% Condns DB=>MCWB,     !- Name
  2,                                      !- Month
  21,                                     !- Day of Month
  SummerDesignDay,                        !- Day Type
  18.5,                                   !- Maximum Dry-Bulb Temperature {C}
  7,                                      !- Daily Dry-Bulb Temperature Range {deltaC}
  DefaultMultipliers,                     !- Dry-Bulb Temperature Range Modifier Type
  ,                                       !- Dry-Bulb Temperature Range Modifier Day Schedule Name
  Wetbulb,                                !- Humidity Condition Type
  12.4,                                   !- Wetbulb or DewPoint at Maximum Dry-Bulb {C}
  ,                                       !- Humidity Condition Day Schedule Name
  ,                                       !- Humidity Ratio at Maximum Dry-Bulb {kgWater/kgDryAir}
  ,                                       !- Enthalpy at Maximum Dry-Bulb {J/kg}
  ,                                       !- Daily Wet-Bulb Temperature Range {deltaC}
  101265,                                 !- Barometric Pressure {Pa}
  3.3,                                    !- Wind Speed {m/s}
  150,                                    !- Wind Direction {deg}
  No,                                     !- Rain Indicator
  No,                                     !- Snow Indicator
  No,                                     !- Daylight Saving Time Indicator
  ASHRAETau2017,                          !- Solar Model Indicator
  ,                                       !- Beam Solar Day Schedule Name
  ,                                       !- Diffuse Solar Day Schedule Name
  ,                                       !- ASHRAE Clear Sky Optical Depth for Beam Irradiance (taub) {dimensionless}
  ,                                       !- ASHRAE Clear Sky Optical Depth for Diffuse Irradiance (taud) {dimensionless}
  ,                                       !- Sky Clearness
  ,                                       !- Maximum Number Warmup Days
  FullResetAtBeginEnvironment;            !- Begin Environment Reset Mode

SizingPeriod:DesignDay,
  Tokyo February .4% Condns WB=>MCDB,     !- Name
  2,                                      !- Month
  21,                                     !- Day of Month
  SummerDesignDay,                        !- Day Type
  17.9,                                   !- Maximum Dry-Bulb Temperature {C}
  7,                                      !- Daily Dry-Bulb Temperature Range {deltaC}
  DefaultMultipliers,                     !- Dry-Bulb Temperature Range Modifier Type
  ,                                       !- Dry-Bulb Temperature Range Modifier Day Schedule Name
  Wetbulb,                                !- Humidity Condition Type
  14.2,                                   !- Wetbulb or DewPoint at Maximum Dry-Bulb {C}
  ,                                       !- Humidity Condition Day Schedule Name
  ,                                       !- Humidity Ratio at Maximum Dry-Bulb {kgWater/kgDryAir}
  ,                                       !- Enthalpy at Maximum Dry-Bulb {J/kg}
  ,                                       !- Daily Wet-Bulb Temperature Range {deltaC}
  101265,                                 !- Barometric Pressure {Pa}
  3.3,                                    !- Wind Speed {m/s}
  150,                                    !- Wind Direction {deg}
  No,                                     !- Rain Indicator
  No,                                     !- Snow Indicator
  No,                                     !- Daylight Saving Time Indicator
  ASHRAETau2017,                          !- Solar Model Indicator
  ,                                       !- Beam Solar Day Schedule Name
  ,                                       !- Diffuse Solar Day Schedule Name
  ,                                       !- ASHRAE Clear Sky Optical Depth for Beam Irradiance (taub) {dimensionless}
  ,                                       !- ASHRAE Clear Sky Optical Depth for Diffuse Irradiance (taud) {dimensionless}
  ,                                       !- Sky Clearness
  ,                                       !- Maximum Number Warmup Days
  FullResetAtBeginEnvironment;            !- Begin Environment Reset Mode

SizingPeriod:DesignDay,
  Tokyo January .4% Condns DB=>MCWB,      !- Name
  1,                                      !- Month
  21,                                     !- Day of Month
  SummerDesignDay,                        !- Day Type
  15.6,                                   !- Maximum Dry-Bulb Temperature {C}
  6.8,                                    !- Daily Dry-Bulb Temperature Range {deltaC}
  DefaultMultipliers,                     !- Dry-Bulb Temperature Range Modifier Type
  ,                                       !- Dry-Bulb Temperature Range Modifier Day Schedule Name
  Wetbulb,                                !- Humidity Condition Type
  10.5,                                   !- Wetbulb or DewPoint at Maximum Dry-Bulb {C}
  ,                                       !- Humidity Condition Day Schedule Name
  ,                                       !- Humidity Ratio at Maximum Dry-Bulb {kgWater/kgDryAir}
  ,                                       !- Enthalpy at Maximum Dry-Bulb {J/kg}
  ,                                       !- Daily Wet-Bulb Temperature Range {deltaC}
  101265,                                 !- Barometric Pressure {Pa}
  3.1,                                    !- Wind Speed {m/s}
  150,                                    !- Wind Direction {deg}
  No,                                     !- Rain Indicator
  No,                                     !- Snow Indicator
  No,                                     !- Daylight Saving Time Indicator
  ASHRAETau2017,                          !- Solar Model Indicator
  ,                                       !- Beam Solar Day Schedule Name
  ,                                       !- Diffuse Solar Day Schedule Name
  ,                                       !- ASHRAE Clear Sky Optical Depth for Beam Irradiance (taub) {dimensionless}
  ,                                       !- ASHRAE Clear Sky Optical Depth for Diffuse Irradiance (taud) {dimensionless}
  ,                                       !- Sky Clearness
  ,                                       !- Maximum Number Warmup Days
  FullResetAtBeginEnvironment;            !- Begin Environment Reset Mode

SizingPeriod:DesignDay,
  Tokyo January .4% Condns WB=>MCDB,      !- Name
  1,                                      !- Month
  21,                                     !- Day of Month
  SummerDesignDay,                        !- Day Type
  14.8,                                   !- Maximum Dry-Bulb Temperature {C}
  6.8,                                    !- Daily Dry-Bulb Temperature Range {deltaC}
  DefaultMultipliers,                     !- Dry-Bulb Temperature Range Modifier Type
  ,                                       !- Dry-Bulb Temperature Range Modifier Day Schedule Name
  Wetbulb,                                !- Humidity Condition Type
  11.7,                                   !- Wetbulb or DewPoint at Maximum Dry-Bulb {C}
  ,                                       !- Humidity Condition Day Schedule Name
  ,                                       !- Humidity Ratio at Maximum Dry-Bulb {kgWater/kgDryAir}
  ,                                       !- Enthalpy at Maximum Dry-Bulb {J/kg}
  ,                                       !- Daily Wet-Bulb Temperature Range {deltaC}
  101265,                                 !- Barometric Pressure {Pa}
  3.1,                                    !- Wind Speed {m/s}
  150,                                    !- Wind Direction {deg}
  No,                                     !- Rain Indicator
  No,                                     !- Snow Indicator
  No,                                     !- Daylight Saving Time Indicator
  ASHRAETau2017,                          !- Solar Model Indicator
  ,                                       !- Beam Solar Day Schedule Name
  ,                                       !- Diffuse Solar Day Schedule Name
  ,                                       !- ASHRAE Clear Sky Optical Depth for Beam Irradiance (taub) {dimensionless}
  ,                                       !- ASHRAE Clear Sky Optical Depth for Diffuse Irradiance (taud) {dimensionless}
  ,                                       !- Sky Clearness
  ,                                       !- Maximum Number Warmup Days
  FullResetAtBeginEnvironment;            !- Begin Environment Reset Mode

SizingPeriod:DesignDay,
  Tokyo July .4% Condns DB=>MCWB,         !- Name
  7,                                      !- Month
  21,                                     !- Day of Month
  SummerDesignDay,                        !- Day Type
  34.8,                                   !- Maximum Dry-Bulb Temperature {C}
  5.9,                                    !- Daily Dry-Bulb Temperature Range {deltaC}
  DefaultMultipliers,                     !- Dry-Bulb Temperature Range Modifier Type
  ,                                       !- Dry-Bulb Temperature Range Modifier Day Schedule Name
  Wetbulb,                                !- Humidity Condition Type
  25.4,                                   !- Wetbulb or DewPoint at Maximum Dry-Bulb {C}
  ,                                       !- Humidity Condition Day Schedule Name
  ,                                       !- Humidity Ratio at Maximum Dry-Bulb {kgWater/kgDryAir}
  ,                                       !- Enthalpy at Maximum Dry-Bulb {J/kg}
  ,                                       !- Daily Wet-Bulb Temperature Range {deltaC}
  101265,                                 !- Barometric Pressure {Pa}
  3,                                      !- Wind Speed {m/s}
  150,                                    !- Wind Direction {deg}
  No,                                     !- Rain Indicator
  No,                                     !- Snow Indicator
  No,                                     !- Daylight Saving Time Indicator
  ASHRAETau2017,                          !- Solar Model Indicator
  ,                                       !- Beam Solar Day Schedule Name
  ,                                       !- Diffuse Solar Day Schedule Name
  ,                                       !- ASHRAE Clear Sky Optical Depth for Beam Irradiance (taub) {dimensionless}
  ,                                       !- ASHRAE Clear Sky Optical Depth for Diffuse Irradiance (taud) {dimensionless}
  ,                                       !- Sky Clearness
  ,                                       !- Maximum Number Warmup Days
  FullResetAtBeginEnvironment;            !- Begin Environment Reset Mode

SizingPeriod:DesignDay,
  Tokyo July .4% Condns WB=>MCDB,         !- Name
  7,                                      !- Month
  21,                                     !- Day of Month
  SummerDesignDay,                        !- Day Type
  32.3,                                   !- Maximum Dry-Bulb Temperature {C}
  5.9,                                    !- Daily Dry-Bulb Temperature Range {deltaC}
  DefaultMultipliers,                     !- Dry-Bulb Temperature Range Modifier Type
  ,                                       !- Dry-Bulb Temperature Range Modifier Day Schedule Name
  Wetbulb,                                !- Humidity Condition Type
  27.3,                                   !- Wetbulb or DewPoint at Maximum Dry-Bulb {C}
  ,                                       !- Humidity Condition Day Schedule Name
  ,                                       !- Humidity Ratio at Maximum Dry-Bulb {kgWater/kgDryAir}
  ,                                       !- Enthalpy at Maximum Dry-Bulb {J/kg}
  ,                                       !- Daily Wet-Bulb Temperature Range {deltaC}
  101265,                                 !- Barometric Pressure {Pa}
  3,                                      !- Wind Speed {m/s}
  150,                                    !- Wind Direction {deg}
  No,                                     !- Rain Indicator
  No,                                     !- Snow Indicator
  No,                                     !- Daylight Saving Time Indicator
  ASHRAETau2017,                          !- Solar Model Indicator
  ,                                       !- Beam Solar Day Schedule Name
  ,                                       !- Diffuse Solar Day Schedule Name
  ,                                       !- ASHRAE Clear Sky Optical Depth for Beam Irradiance (taub) {dimensionless}
  ,                                       !- ASHRAE Clear Sky Optical Depth for Diffuse Irradiance (taud) {dimensionless}
  ,                                       !- Sky Clearness
  ,                                       !- Maximum Number Warmup Days
  FullResetAtBeginEnvironment;            !- Begin Environment Reset Mode

SizingPeriod:DesignDay,
  Tokyo June .4% Condns DB=>MCWB,         !- Name
  6,                                      !- Month
  21,                                     !- Day of Month
  SummerDesignDay,                        !- Day Type
  31.5,                                   !- Maximum Dry-Bulb Temperature {C}
  5.9,                                    !- Daily Dry-Bulb Temperature Range {deltaC}
  DefaultMultipliers,                     !- Dry-Bulb Temperature Range Modifier Type
  ,                                       !- Dry-Bulb Temperature Range Modifier Day Schedule Name
  Wetbulb,                                !- Humidity Condition Type
  23.1,                                   !- Wetbulb or DewPoint at Maximum Dry-Bulb {C}
  ,                                       !- Humidity Condition Day Schedule Name
  ,                                       !- Humidity Ratio at Maximum Dry-Bulb {kgWater/kgDryAir}
  ,                                       !- Enthalpy at Maximum Dry-Bulb {J/kg}
  ,                                       !- Daily Wet-Bulb Temperature Range {deltaC}
  101265,                                 !- Barometric Pressure {Pa}
  2.9,                                    !- Wind Speed {m/s}
  150,                                    !- Wind Direction {deg}
  No,                                     !- Rain Indicator
  No,                                     !- Snow Indicator
  No,                                     !- Daylight Saving Time Indicator
  ASHRAETau2017,                          !- Solar Model Indicator
  ,                                       !- Beam Solar Day Schedule Name
  ,                                       !- Diffuse Solar Day Schedule Name
  ,                                       !- ASHRAE Clear Sky Optical Depth for Beam Irradiance (taub) {dimensionless}
  ,                                       !- ASHRAE Clear Sky Optical Depth for Diffuse Irradiance (taud) {dimensionless}
  ,                                       !- Sky Clearness
  ,                                       !- Maximum Number Warmup Days
  FullResetAtBeginEnvironment;            !- Begin Environment Reset Mode

SizingPeriod:DesignDay,
  Tokyo June .4% Condns WB=>MCDB,         !- Name
  6,                                      !- Month
  21,                                     !- Day of Month
  SummerDesignDay,                        !- Day Type
  29.3,                                   !- Maximum Dry-Bulb Temperature {C}
  5.9,                                    !- Daily Dry-Bulb Temperature Range {deltaC}
  DefaultMultipliers,                     !- Dry-Bulb Temperature Range Modifier Type
  ,                                       !- Dry-Bulb Temperature Range Modifier Day Schedule Name
  Wetbulb,                                !- Humidity Condition Type
  24.7,                                   !- Wetbulb or DewPoint at Maximum Dry-Bulb {C}
  ,                                       !- Humidity Condition Day Schedule Name
  ,                                       !- Humidity Ratio at Maximum Dry-Bulb {kgWater/kgDryAir}
  ,                                       !- Enthalpy at Maximum Dry-Bulb {J/kg}
  ,                                       !- Daily Wet-Bulb Temperature Range {deltaC}
  101265,                                 !- Barometric Pressure {Pa}
  2.9,                                    !- Wind Speed {m/s}
  150,                                    !- Wind Direction {deg}
  No,                                     !- Rain Indicator
  No,                                     !- Snow Indicator
  No,                                     !- Daylight Saving Time Indicator
  ASHRAETau2017,                          !- Solar Model Indicator
  ,                                       !- Beam Solar Day Schedule Name
  ,                                       !- Diffuse Solar Day Schedule Name
  ,                                       !- ASHRAE Clear Sky Optical Depth for Beam Irradiance (taub) {dimensionless}
  ,                                       !- ASHRAE Clear Sky Optical Depth for Diffuse Irradiance (taud) {dimensionless}
  ,                                       !- Sky Clearness
  ,                                       !- Maximum Number Warmup Days
  FullResetAtBeginEnvironment;            !- Begin Environment Reset Mode

SizingPeriod:DesignDay,
  Tokyo March .4% Condns DB=>MCWB,        !- Name
  3,                                      !- Month
  21,                                     !- Day of Month
  SummerDesignDay,                        !- Day Type
  21.3,                                   !- Maximum Dry-Bulb Temperature {C}
  7.4,                                    !- Daily Dry-Bulb Temperature Range {deltaC}
  DefaultMultipliers,                     !- Dry-Bulb Temperature Range Modifier Type
  ,                                       !- Dry-Bulb Temperature Range Modifier Day Schedule Name
  Wetbulb,                                !- Humidity Condition Type
  13.3,                                   !- Wetbulb or DewPoint at Maximum Dry-Bulb {C}
  ,                                       !- Humidity Condition Day Schedule Name
  ,                                       !- Humidity Ratio at Maximum Dry-Bulb {kgWater/kgDryAir}
  ,                                       !- Enthalpy at Maximum Dry-Bulb {J/kg}
  ,                                       !- Daily Wet-Bulb Temperature Range {deltaC}
  101265,                                 !- Barometric Pressure {Pa}
  3.4,                                    !- Wind Speed {m/s}
  150,                                    !- Wind Direction {deg}
  No,                                     !- Rain Indicator
  No,                                     !- Snow Indicator
  No,                                     !- Daylight Saving Time Indicator
  ASHRAETau2017,                          !- Solar Model Indicator
  ,                                       !- Beam Solar Day Schedule Name
  ,                                       !- Diffuse Solar Day Schedule Name
  ,                                       !- ASHRAE Clear Sky Optical Depth for Beam Irradiance (taub) {dimensionless}
  ,                                       !- ASHRAE Clear Sky Optical Depth for Diffuse Irradiance (taud) {dimensionless}
  ,                                       !- Sky Clearness
  ,                                       !- Maximum Number Warmup Days
  FullResetAtBeginEnvironment;            !- Begin Environment Reset Mode

SizingPeriod:DesignDay,
  Tokyo March .4% Condns WB=>MCDB,        !- Name
  3,                                      !- Month
  21,                                     !- Day of Month
  SummerDesignDay,                        !- Day Type
  18.5,                                   !- Maximum Dry-Bulb Temperature {C}
  7.4,                                    !- Daily Dry-Bulb Temperature Range {deltaC}
  DefaultMultipliers,                     !- Dry-Bulb Temperature Range Modifier Type
  ,                                       !- Dry-Bulb Temperature Range Modifier Day Schedule Name
  Wetbulb,                                !- Humidity Condition Type
  15.8,                                   !- Wetbulb or DewPoint at Maximum Dry-Bulb {C}
  ,                                       !- Humidity Condition Day Schedule Name
  ,                                       !- Humidity Ratio at Maximum Dry-Bulb {kgWater/kgDryAir}
  ,                                       !- Enthalpy at Maximum Dry-Bulb {J/kg}
  ,                                       !- Daily Wet-Bulb Temperature Range {deltaC}
  101265,                                 !- Barometric Pressure {Pa}
  3.4,                                    !- Wind Speed {m/s}
  150,                                    !- Wind Direction {deg}
  No,                                     !- Rain Indicator
  No,                                     !- Snow Indicator
  No,                                     !- Daylight Saving Time Indicator
  ASHRAETau2017,                          !- Solar Model Indicator
  ,                                       !- Beam Solar Day Schedule Name
  ,                                       !- Diffuse Solar Day Schedule Name
  ,                                       !- ASHRAE Clear Sky Optical Depth for Beam Irradiance (taub) {dimensionless}
  ,                                       !- ASHRAE Clear Sky Optical Depth for Diffuse Irradiance (taud) {dimensionless}
  ,                                       !- Sky Clearness
  ,                                       !- Maximum Number Warmup Days
  FullResetAtBeginEnvironment;            !- Begin Environment Reset Mode

SizingPeriod:DesignDay,
  Tokyo May .4% Condns DB=>MCWB,          !- Name
  5,                                      !- Month
  21,                                     !- Day of Month
  SummerDesignDay,                        !- Day Type
  29.1,                                   !- Maximum Dry-Bulb Temperature {C}
  7,                                      !- Daily Dry-Bulb Temperature Range {deltaC}
  DefaultMultipliers,                     !- Dry-Bulb Temperature Range Modifier Type
  ,                                       !- Dry-Bulb Temperature Range Modifier Day Schedule Name
  Wetbulb,                                !- Humidity Condition Type
  19.1,                                   !- Wetbulb or DewPoint at Maximum Dry-Bulb {C}
  ,                                       !- Humidity Condition Day Schedule Name
  ,                                       !- Humidity Ratio at Maximum Dry-Bulb {kgWater/kgDryAir}
  ,                                       !- Enthalpy at Maximum Dry-Bulb {J/kg}
  ,                                       !- Daily Wet-Bulb Temperature Range {deltaC}
  101265,                                 !- Barometric Pressure {Pa}
  3.3,                                    !- Wind Speed {m/s}
  150,                                    !- Wind Direction {deg}
  No,                                     !- Rain Indicator
  No,                                     !- Snow Indicator
  No,                                     !- Daylight Saving Time Indicator
  ASHRAETau2017,                          !- Solar Model Indicator
  ,                                       !- Beam Solar Day Schedule Name
  ,                                       !- Diffuse Solar Day Schedule Name
  ,                                       !- ASHRAE Clear Sky Optical Depth for Beam Irradiance (taub) {dimensionless}
  ,                                       !- ASHRAE Clear Sky Optical Depth for Diffuse Irradiance (taud) {dimensionless}
  ,                                       !- Sky Clearness
  ,                                       !- Maximum Number Warmup Days
  FullResetAtBeginEnvironment;            !- Begin Environment Reset Mode

SizingPeriod:DesignDay,
  Tokyo May .4% Condns WB=>MCDB,          !- Name
  5,                                      !- Month
  21,                                     !- Day of Month
  SummerDesignDay,                        !- Day Type
  25.5,                                   !- Maximum Dry-Bulb Temperature {C}
  7,                                      !- Daily Dry-Bulb Temperature Range {deltaC}
  DefaultMultipliers,                     !- Dry-Bulb Temperature Range Modifier Type
  ,                                       !- Dry-Bulb Temperature Range Modifier Day Schedule Name
  Wetbulb,                                !- Humidity Condition Type
  22.1,                                   !- Wetbulb or DewPoint at Maximum Dry-Bulb {C}
  ,                                       !- Humidity Condition Day Schedule Name
  ,                                       !- Humidity Ratio at Maximum Dry-Bulb {kgWater/kgDryAir}
  ,                                       !- Enthalpy at Maximum Dry-Bulb {J/kg}
  ,                                       !- Daily Wet-Bulb Temperature Range {deltaC}
  101265,                                 !- Barometric Pressure {Pa}
  3.3,                                    !- Wind Speed {m/s}
  150,                                    !- Wind Direction {deg}
  No,                                     !- Rain Indicator
  No,                                     !- Snow Indicator
  No,                                     !- Daylight Saving Time Indicator
  ASHRAETau2017,                          !- Solar Model Indicator
  ,                                       !- Beam Solar Day Schedule Name
  ,                                       !- Diffuse Solar Day Schedule Name
  ,                                       !- ASHRAE Clear Sky Optical Depth for Beam Irradiance (taub) {dimensionless}
  ,                                       !- ASHRAE Clear Sky Optical Depth for Diffuse Irradiance (taud) {dimensionless}
  ,                                       !- Sky Clearness
  ,                                       !- Maximum Number Warmup Days
  FullResetAtBeginEnvironment;            !- Begin Environment Reset Mode

SizingPeriod:DesignDay,
  Tokyo November .4% Condns DB=>MCWB,     !- Name
  11,                                     !- Month
  21,                                     !- Day of Month
  SummerDesignDay,                        !- Day Type
  22.5,                                   !- Maximum Dry-Bulb Temperature {C}
  6.4,                                    !- Daily Dry-Bulb Temperature Range {deltaC}
  DefaultMultipliers,                     !- Dry-Bulb Temperature Range Modifier Type
  ,                                       !- Dry-Bulb Temperature Range Modifier Day Schedule Name
  Wetbulb,                                !- Humidity Condition Type
  15.9,                                   !- Wetbulb or DewPoint at Maximum Dry-Bulb {C}
  ,                                       !- Humidity Condition Day Schedule Name
  ,                                       !- Humidity Ratio at Maximum Dry-Bulb {kgWater/kgDryAir}
  ,                                       !- Enthalpy at Maximum Dry-Bulb {J/kg}
  ,                                       !- Daily Wet-Bulb Temperature Range {deltaC}
  101265,                                 !- Barometric Pressure {Pa}
  2.8,                                    !- Wind Speed {m/s}
  150,                                    !- Wind Direction {deg}
  No,                                     !- Rain Indicator
  No,                                     !- Snow Indicator
  No,                                     !- Daylight Saving Time Indicator
  ASHRAETau2017,                          !- Solar Model Indicator
  ,                                       !- Beam Solar Day Schedule Name
  ,                                       !- Diffuse Solar Day Schedule Name
  ,                                       !- ASHRAE Clear Sky Optical Depth for Beam Irradiance (taub) {dimensionless}
  ,                                       !- ASHRAE Clear Sky Optical Depth for Diffuse Irradiance (taud) {dimensionless}
  ,                                       !- Sky Clearness
  ,                                       !- Maximum Number Warmup Days
  FullResetAtBeginEnvironment;            !- Begin Environment Reset Mode

SizingPeriod:DesignDay,
  Tokyo November .4% Condns WB=>MCDB,     !- Name
  11,                                     !- Month
  21,                                     !- Day of Month
  SummerDesignDay,                        !- Day Type
  20.8,                                   !- Maximum Dry-Bulb Temperature {C}
  6.4,                                    !- Daily Dry-Bulb Temperature Range {deltaC}
  DefaultMultipliers,                     !- Dry-Bulb Temperature Range Modifier Type
  ,                                       !- Dry-Bulb Temperature Range Modifier Day Schedule Name
  Wetbulb,                                !- Humidity Condition Type
  18.2,                                   !- Wetbulb or DewPoint at Maximum Dry-Bulb {C}
  ,                                       !- Humidity Condition Day Schedule Name
  ,                                       !- Humidity Ratio at Maximum Dry-Bulb {kgWater/kgDryAir}
  ,                                       !- Enthalpy at Maximum Dry-Bulb {J/kg}
  ,                                       !- Daily Wet-Bulb Temperature Range {deltaC}
  101265,                                 !- Barometric Pressure {Pa}
  2.8,                                    !- Wind Speed {m/s}
  150,                                    !- Wind Direction {deg}
  No,                                     !- Rain Indicator
  No,                                     !- Snow Indicator
  No,                                     !- Daylight Saving Time Indicator
  ASHRAETau2017,                          !- Solar Model Indicator
  ,                                       !- Beam Solar Day Schedule Name
  ,                                       !- Diffuse Solar Day Schedule Name
  ,                                       !- ASHRAE Clear Sky Optical Depth for Beam Irradiance (taub) {dimensionless}
  ,                                       !- ASHRAE Clear Sky Optical Depth for Diffuse Irradiance (taud) {dimensionless}
  ,                                       !- Sky Clearness
  ,                                       !- Maximum Number Warmup Days
  FullResetAtBeginEnvironment;            !- Begin Environment Reset Mode

SizingPeriod:DesignDay,
  Tokyo October .4% Condns DB=>MCWB,      !- Name
  10,                                     !- Month
  21,                                     !- Day of Month
  SummerDesignDay,                        !- Day Type
  28.7,                                   !- Maximum Dry-Bulb Temperature {C}
  5.8,                                    !- Daily Dry-Bulb Temperature Range {deltaC}
  DefaultMultipliers,                     !- Dry-Bulb Temperature Range Modifier Type
  ,                                       !- Dry-Bulb Temperature Range Modifier Day Schedule Name
  Wetbulb,                                !- Humidity Condition Type
  21.3,                                   !- Wetbulb or DewPoint at Maximum Dry-Bulb {C}
  ,                                       !- Humidity Condition Day Schedule Name
  ,                                       !- Humidity Ratio at Maximum Dry-Bulb {kgWater/kgDryAir}
  ,                                       !- Enthalpy at Maximum Dry-Bulb {J/kg}
  ,                                       !- Daily Wet-Bulb Temperature Range {deltaC}
  101265,                                 !- Barometric Pressure {Pa}
  3,                                      !- Wind Speed {m/s}
  150,                                    !- Wind Direction {deg}
  No,                                     !- Rain Indicator
  No,                                     !- Snow Indicator
  No,                                     !- Daylight Saving Time Indicator
  ASHRAETau2017,                          !- Solar Model Indicator
  ,                                       !- Beam Solar Day Schedule Name
  ,                                       !- Diffuse Solar Day Schedule Name
  ,                                       !- ASHRAE Clear Sky Optical Depth for Beam Irradiance (taub) {dimensionless}
  ,                                       !- ASHRAE Clear Sky Optical Depth for Diffuse Irradiance (taud) {dimensionless}
  ,                                       !- Sky Clearness
  ,                                       !- Maximum Number Warmup Days
  FullResetAtBeginEnvironment;            !- Begin Environment Reset Mode

SizingPeriod:DesignDay,
  Tokyo October .4% Condns WB=>MCDB,      !- Name
  10,                                     !- Month
  21,                                     !- Day of Month
  SummerDesignDay,                        !- Day Type
  26.3,                                   !- Maximum Dry-Bulb Temperature {C}
  5.8,                                    !- Daily Dry-Bulb Temperature Range {deltaC}
  DefaultMultipliers,                     !- Dry-Bulb Temperature Range Modifier Type
  ,                                       !- Dry-Bulb Temperature Range Modifier Day Schedule Name
  Wetbulb,                                !- Humidity Condition Type
  23.2,                                   !- Wetbulb or DewPoint at Maximum Dry-Bulb {C}
  ,                                       !- Humidity Condition Day Schedule Name
  ,                                       !- Humidity Ratio at Maximum Dry-Bulb {kgWater/kgDryAir}
  ,                                       !- Enthalpy at Maximum Dry-Bulb {J/kg}
  ,                                       !- Daily Wet-Bulb Temperature Range {deltaC}
  101265,                                 !- Barometric Pressure {Pa}
  3,                                      !- Wind Speed {m/s}
  150,                                    !- Wind Direction {deg}
  No,                                     !- Rain Indicator
  No,                                     !- Snow Indicator
  No,                                     !- Daylight Saving Time Indicator
  ASHRAETau2017,                          !- Solar Model Indicator
  ,                                       !- Beam Solar Day Schedule Name
  ,                                       !- Diffuse Solar Day Schedule Name
  ,                                       !- ASHRAE Clear Sky Optical Depth for Beam Irradiance (taub) {dimensionless}
  ,                                       !- ASHRAE Clear Sky Optical Depth for Diffuse Irradiance (taud) {dimensionless}
  ,                                       !- Sky Clearness
  ,                                       !- Maximum Number Warmup Days
  FullResetAtBeginEnvironment;            !- Begin Environment Reset Mode

SizingPeriod:DesignDay,
  Tokyo September .4% Condns DB=>MCWB,    !- Name
  9,                                      !- Month
  21,                                     !- Day of Month
  SummerDesignDay,                        !- Day Type
  33.1,                                   !- Maximum Dry-Bulb Temperature {C}
  5.7,                                    !- Daily Dry-Bulb Temperature Range {deltaC}
  DefaultMultipliers,                     !- Dry-Bulb Temperature Range Modifier Type
  ,                                       !- Dry-Bulb Temperature Range Modifier Day Schedule Name
  Wetbulb,                                !- Humidity Condition Type
  24.3,                                   !- Wetbulb or DewPoint at Maximum Dry-Bulb {C}
  ,                                       !- Humidity Condition Day Schedule Name
  ,                                       !- Humidity Ratio at Maximum Dry-Bulb {kgWater/kgDryAir}
  ,                                       !- Enthalpy at Maximum Dry-Bulb {J/kg}
  ,                                       !- Daily Wet-Bulb Temperature Range {deltaC}
  101265,                                 !- Barometric Pressure {Pa}
  3.1,                                    !- Wind Speed {m/s}
  150,                                    !- Wind Direction {deg}
  No,                                     !- Rain Indicator
  No,                                     !- Snow Indicator
  No,                                     !- Daylight Saving Time Indicator
  ASHRAETau2017,                          !- Solar Model Indicator
  ,                                       !- Beam Solar Day Schedule Name
  ,                                       !- Diffuse Solar Day Schedule Name
  ,                                       !- ASHRAE Clear Sky Optical Depth for Beam Irradiance (taub) {dimensionless}
  ,                                       !- ASHRAE Clear Sky Optical Depth for Diffuse Irradiance (taud) {dimensionless}
  ,                                       !- Sky Clearness
  ,                                       !- Maximum Number Warmup Days
  FullResetAtBeginEnvironment;            !- Begin Environment Reset Mode

SizingPeriod:DesignDay,
  Tokyo September .4% Condns WB=>MCDB,    !- Name
  9,                                      !- Month
  21,                                     !- Day of Month
  SummerDesignDay,                        !- Day Type
  30.2,                                   !- Maximum Dry-Bulb Temperature {C}
  5.7,                                    !- Daily Dry-Bulb Temperature Range {deltaC}
  DefaultMultipliers,                     !- Dry-Bulb Temperature Range Modifier Type
  ,                                       !- Dry-Bulb Temperature Range Modifier Day Schedule Name
  Wetbulb,                                !- Humidity Condition Type
  26.2,                                   !- Wetbulb or DewPoint at Maximum Dry-Bulb {C}
  ,                                       !- Humidity Condition Day Schedule Name
  ,                                       !- Humidity Ratio at Maximum Dry-Bulb {kgWater/kgDryAir}
  ,                                       !- Enthalpy at Maximum Dry-Bulb {J/kg}
  ,                                       !- Daily Wet-Bulb Temperature Range {deltaC}
  101265,                                 !- Barometric Pressure {Pa}
  3.1,                                    !- Wind Speed {m/s}
  150,                                    !- Wind Direction {deg}
  No,                                     !- Rain Indicator
  No,                                     !- Snow Indicator
  No,                                     !- Daylight Saving Time Indicator
  ASHRAETau2017,                          !- Solar Model Indicator
  ,                                       !- Beam Solar Day Schedule Name
  ,                                       !- Diffuse Solar Day Schedule Name
  ,                                       !- ASHRAE Clear Sky Optical Depth for Beam Irradiance (taub) {dimensionless}
  ,                                       !- ASHRAE Clear Sky Optical Depth for Diffuse Irradiance (taud) {dimensionless}
  ,                                       !- Sky Clearness
  ,                                       !- Maximum Number Warmup Days
  FullResetAtBeginEnvironment;            !- Begin Environment Reset Mode

Output:Variable,
  ,                                       !- Key Value
  Baseboard Electricity Energy,           !- Variable Name
  Hourly;                                 !- Reporting Frequency

Output:Variable,
  ,                                       !- Key Value
  District Cooling Water Energy,          !- Variable Name
  Hourly;                                 !- Reporting Frequency

Output:Variable,
  ,                                       !- Key Value
  District Heating Water Energy,          !- Variable Name
  Hourly;                                 !- Reporting Frequency

Output:Variable,
  ,                                       !- Key Value
  Evaporative Cooler Electricity Energy,  !- Variable Name
  Hourly;                                 !- Reporting Frequency

Output:Variable,
  ,                                       !- Key Value
  Facility Net Purchased Electricity Energy, !- Variable Name
  Hourly;                                 !- Reporting Frequency

Output:Variable,
  ,                                       !- Key Value
  Facility Total Produced Electricity Energy, !- Variable Name
  Hourly;                                 !- Reporting Frequency

Output:Variable,
  ,                                       !- Key Value
  Fan Electricity Energy,                 !- Variable Name
  Hourly;                                 !- Reporting Frequency

Output:Variable,
  ,                                       !- Key Value
  Generator Produced DC Electricity Energy, !- Variable Name
  Hourly;                                 !- Reporting Frequency

Output:Variable,
  ,                                       !- Key Value
  Heating Coil Electricity Energy,        !- Variable Name
  Hourly;                                 !- Reporting Frequency

Output:Variable,
  ,                                       !- Key Value
  Heating Coil NaturalGas Energy,         !- Variable Name
  Hourly;                                 !- Reporting Frequency

Output:Variable,
  ,                                       !- Key Value
  Heating Coil Total Heating Energy,      !- Variable Name
  Hourly;                                 !- Reporting Frequency

Output:Variable,
  ,                                       !- Key Value
  Boiler Electricity Energy,              !- Variable Name
  Hourly;                                 !- Reporting Frequency

Output:Variable,
  ,                                       !- Key Value
  Hot_Water_Loop_Central_Air_Source_Heat_Pump Electricity Consumption, !- Variable Name
  Hourly;                                 !- Reporting Frequency

Output:Variable,
  ,                                       !- Key Value
  Humidifier Electricity Energy,          !- Variable Name
  Hourly;                                 !- Reporting Frequency

Output:Variable,
  ,                                       !- Key Value
  Pump Electricity Energy,                !- Variable Name
  Hourly;                                 !- Reporting Frequency

Output:Variable,
  ,                                       !- Key Value
  VRF Heat Pump Cooling Electricity Energy, !- Variable Name
  Hourly;                                 !- Reporting Frequency

Output:Variable,
  ,                                       !- Key Value
  VRF Heat Pump Crankcase Heater Electricity Energy, !- Variable Name
  Hourly;                                 !- Reporting Frequency

Output:Variable,
  ,                                       !- Key Value
  VRF Heat Pump Defrost Electricity Energy, !- Variable Name
  Hourly;                                 !- Reporting Frequency

Output:Variable,
  ,                                       !- Key Value
  VRF Heat Pump Heating Electricity Energy, !- Variable Name
  Hourly;                                 !- Reporting Frequency

Output:Variable,
  ,                                       !- Key Value
  Water Heater Electricity Energy,        !- Variable Name
  Hourly;                                 !- Reporting Frequency

Output:Variable,
  ,                                       !- Key Value
  Water Heater NaturalGas Energy,         !- Variable Name
  Hourly;                                 !- Reporting Frequency

Output:Variable,
  ,                                       !- Key Value
  Water Use Equipment Heating Energy,     !- Variable Name
  Hourly;                                 !- Reporting Frequency

Output:Variable,
  ,                                       !- Key Value
  Boiler NaturalGas Energy,               !- Variable Name
  Hourly;                                 !- Reporting Frequency

Output:Variable,
  ,                                       !- Key Value
  Zone Electric Equipment Electricity Energy, !- Variable Name
  Hourly;                                 !- Reporting Frequency

Output:Variable,
  ,                                       !- Key Value
  Zone Gas Equipment NaturalGas Energy,   !- Variable Name
  Hourly;                                 !- Reporting Frequency

Output:Variable,
  ,                                       !- Key Value
  Zone Ideal Loads Supply Air Total Cooling Energy, !- Variable Name
  Hourly;                                 !- Reporting Frequency

Output:Variable,
  ,                                       !- Key Value
  Zone Ideal Loads Supply Air Total Heating Energy, !- Variable Name
  Hourly;                                 !- Reporting Frequency

Output:Variable,
  ,                                       !- Key Value
  Zone Lights Electricity Energy,         !- Variable Name
  Hourly;                                 !- Reporting Frequency

Output:Variable,
  ,                                       !- Key Value
  Zone Other Equipment Lost Heat Energy,  !- Variable Name
  Hourly;                                 !- Reporting Frequency

Output:Variable,
  ,                                       !- Key Value
  Zone Other Equipment Total Heating Energy, !- Variable Name
  Hourly;                                 !- Reporting Frequency

Output:Variable,
  ,                                       !- Key Value
  Zone VRF Air Terminal Cooling Electricity Energy, !- Variable Name
  Hourly;                                 !- Reporting Frequency

Output:Variable,
  ,                                       !- Key Value
  Zone VRF Air Terminal Heating Electricity Energy, !- Variable Name
  Hourly;                                 !- Reporting Frequency

Output:Variable,
  ,                                       !- Key Value
  Zone Ventilation Fan Electricity Energy, !- Variable Name
  Hourly;                                 !- Reporting Frequency

Output:Variable,
  ,                                       !- Key Value
  Chiller Electricity Energy,             !- Variable Name
  Hourly;                                 !- Reporting Frequency

Output:Variable,
  ,                                       !- Key Value
  Chiller Heater System Cooling Electricity Energy, !- Variable Name
  Hourly;                                 !- Reporting Frequency

Output:Variable,
  ,                                       !- Key Value
  Chiller Heater System Heating Electricity Energy, !- Variable Name
  Hourly;                                 !- Reporting Frequency

Output:Variable,
  ,                                       !- Key Value
  Cooling Coil Electricity Energy,        !- Variable Name
  Hourly;                                 !- Reporting Frequency

Output:Variable,
  ,                                       !- Key Value
  Cooling Coil Water Heating Electricity Energy, !- Variable Name
  Hourly;                                 !- Reporting Frequency

Output:Variable,
  ,                                       !- Key Value
  Cooling Tower Fan Electricity Energy,   !- Variable Name
  Hourly;                                 !- Reporting Frequency

OutputControl:Table:Style,
  HTML;                                   !- Column Separator

Output:VariableDictionary,
  IDF,                                    !- Key Field
  Unsorted;                               !- Sort Option

Output:SQLite,
  SimpleAndTabular;                       !- Option Type

LifeCycleCost:NonrecurringCost,
  Default Cost,                           !- Name
  Construction,                           !- Category
  0,                                      !- Cost
  ServicePeriod;                          !- Start of Costs

